#   Hz   S  RI   R   50
!
0.000000e+00 2.388615e-03 0.000000e+00 9.975907e-01 0.000000e+00 9.976175e-01 0.000000e+00 2.417704e-03 0.000000e+00
1.333333e+08 2.388685e-03 -5.334611e-05 9.975906e-01 -4.375595e-04 9.976174e-01 -4.402950e-04 2.417650e-03 -7.384946e-05
2.666667e+08 2.388895e-03 -1.066938e-04 9.975902e-01 -8.751169e-04 9.976169e-01 -8.805875e-04 2.417485e-03 -1.476998e-04
4.000000e+08 2.389245e-03 -1.600445e-04 9.975894e-01 -1.312670e-03 9.976161e-01 -1.320875e-03 2.417212e-03 -2.215521e-04
5.333333e+08 2.389735e-03 -2.134000e-04 9.975884e-01 -1.750217e-03 9.976151e-01 -1.761155e-03 2.416829e-03 -2.954071e-04
6.666667e+08 2.390364e-03 -2.667616e-04 9.975871e-01 -2.187756e-03 9.976137e-01 -2.201424e-03 2.416336e-03 -3.692657e-04
8.000000e+08 2.391134e-03 -3.201309e-04 9.975855e-01 -2.625285e-03 9.976120e-01 -2.641681e-03 2.415733e-03 -4.431290e-04
9.333333e+08 2.392042e-03 -3.735096e-04 9.975836e-01 -3.062802e-03 9.976100e-01 -3.081923e-03 2.415021e-03 -5.169977e-04
1.066667e+09 2.393091e-03 -4.268991e-04 9.975815e-01 -3.500304e-03 9.976077e-01 -3.522148e-03 2.414199e-03 -5.908729e-04
1.200000e+09 2.394278e-03 -4.803009e-04 9.975790e-01 -3.937790e-03 9.976051e-01 -3.962352e-03 2.413266e-03 -6.647554e-04
1.333333e+09 2.395603e-03 -5.337167e-04 9.975762e-01 -4.375257e-03 9.976021e-01 -4.402533e-03 2.412224e-03 -7.386462e-04
1.466667e+09 2.397068e-03 -5.871478e-04 9.975732e-01 -4.812704e-03 9.975989e-01 -4.842690e-03 2.411071e-03 -8.125460e-04
1.600000e+09 2.398670e-03 -6.405959e-04 9.975699e-01 -5.250129e-03 9.975954e-01 -5.282819e-03 2.409807e-03 -8.864559e-04
1.733333e+09 2.400411e-03 -6.940624e-04 9.975662e-01 -5.687530e-03 9.975915e-01 -5.722918e-03 2.408433e-03 -9.603768e-04
1.866667e+09 2.402289e-03 -7.475488e-04 9.975623e-01 -6.124904e-03 9.975874e-01 -6.162984e-03 2.406947e-03 -1.034309e-03
2.000000e+09 2.404303e-03 -8.010567e-04 9.975581e-01 -6.562250e-03 9.975829e-01 -6.603016e-03 2.405350e-03 -1.108255e-03
2.133333e+09 2.406455e-03 -8.545875e-04 9.975537e-01 -6.999566e-03 9.975782e-01 -7.043010e-03 2.403641e-03 -1.182214e-03
2.266667e+09 2.408742e-03 -9.081426e-04 9.975489e-01 -7.436849e-03 9.975732e-01 -7.482965e-03 2.401820e-03 -1.256187e-03
2.400000e+09 2.411166e-03 -9.617237e-04 9.975438e-01 -7.874099e-03 9.975678e-01 -7.922878e-03 2.399886e-03 -1.330175e-03
2.533333e+09 2.413724e-03 -1.015332e-03 9.975385e-01 -8.311312e-03 9.975622e-01 -8.362747e-03 2.397840e-03 -1.404180e-03
2.666667e+09 2.416417e-03 -1.068969e-03 9.975329e-01 -8.748488e-03 9.975562e-01 -8.802569e-03 2.395681e-03 -1.478202e-03
2.800000e+09 2.419244e-03 -1.122636e-03 9.975270e-01 -9.185623e-03 9.975500e-01 -9.242342e-03 2.393409e-03 -1.552241e-03
2.933333e+09 2.422205e-03 -1.176335e-03 9.975208e-01 -9.622718e-03 9.975434e-01 -9.682064e-03 2.391022e-03 -1.626300e-03
3.066667e+09 2.425298e-03 -1.230067e-03 9.975143e-01 -1.005977e-02 9.975366e-01 -1.012173e-02 2.388521e-03 -1.700377e-03
3.200000e+09 2.428523e-03 -1.283833e-03 9.975076e-01 -1.049677e-02 9.975294e-01 -1.056135e-02 2.385906e-03 -1.774475e-03
3.333333e+09 2.431880e-03 -1.337635e-03 9.975005e-01 -1.093373e-02 9.975220e-01 -1.100090e-02 2.383175e-03 -1.848594e-03
3.466667e+09 2.435367e-03 -1.391474e-03 9.974932e-01 -1.137064e-02 9.975143e-01 -1.144040e-02 2.380329e-03 -1.922735e-03
3.600000e+09 2.438985e-03 -1.445352e-03 9.974856e-01 -1.180750e-02 9.975063e-01 -1.187983e-02 2.377366e-03 -1.996899e-03
3.733333e+09 2.442731e-03 -1.499269e-03 9.974778e-01 -1.224431e-02 9.974979e-01 -1.231920e-02 2.374287e-03 -2.071085e-03
3.866667e+09 2.446606e-03 -1.553228e-03 9.974696e-01 -1.268106e-02 9.974893e-01 -1.275850e-02 2.371090e-03 -2.145297e-03
4.000000e+09 2.450609e-03 -1.607228e-03 9.974612e-01 -1.311776e-02 9.974805e-01 -1.319774e-02 2.367776e-03 -2.219533e-03
4.133333e+09 2.454739e-03 -1.661273e-03 9.974525e-01 -1.355440e-02 9.974713e-01 -1.363690e-02 2.364343e-03 -2.293794e-03
4.266667e+09 2.458994e-03 -1.715362e-03 9.974435e-01 -1.399098e-02 9.974618e-01 -1.407600e-02 2.360792e-03 -2.368082e-03
4.400000e+09 2.463375e-03 -1.769498e-03 9.974343e-01 -1.442750e-02 9.974521e-01 -1.451501e-02 2.357121e-03 -2.442397e-03
4.533333e+09 2.467880e-03 -1.823681e-03 9.974248e-01 -1.486396e-02 9.974421e-01 -1.495396e-02 2.353330e-03 -2.516740e-03
4.666667e+09 2.472508e-03 -1.877913e-03 9.974150e-01 -1.530035e-02 9.974318e-01 -1.539282e-02 2.349418e-03 -2.591112e-03
4.800000e+09 2.477258e-03 -1.932195e-03 9.974049e-01 -1.573668e-02 9.974212e-01 -1.583161e-02 2.345385e-03 -2.665512e-03
4.933333e+09 2.482130e-03 -1.986527e-03 9.973946e-01 -1.617294e-02 9.974103e-01 -1.627031e-02 2.341230e-03 -2.739943e-03
5.066667e+09 2.487122e-03 -2.040912e-03 9.973840e-01 -1.660913e-02 9.973992e-01 -1.670893e-02 2.336952e-03 -2.814403e-03
5.200000e+09 2.492234e-03 -2.095350e-03 9.973732e-01 -1.704526e-02 9.973877e-01 -1.714747e-02 2.332551e-03 -2.888895e-03
5.333333e+09 2.497464e-03 -2.149842e-03 9.973620e-01 -1.748131e-02 9.973761e-01 -1.758592e-02 2.328026e-03 -2.963419e-03
5.466667e+09 2.502811e-03 -2.204389e-03 9.973507e-01 -1.791729e-02 9.973641e-01 -1.802428e-02 2.323376e-03 -3.037974e-03
5.600000e+09 2.508274e-03 -2.258994e-03 9.973390e-01 -1.835320e-02 9.973519e-01 -1.846256e-02 2.318601e-03 -3.112563e-03
5.733333e+09 2.513853e-03 -2.313655e-03 9.973271e-01 -1.878903e-02 9.973394e-01 -1.890074e-02 2.313700e-03 -3.187185e-03
5.866667e+09 2.519546e-03 -2.368376e-03 9.973149e-01 -1.922479e-02 9.973266e-01 -1.933883e-02 2.308671e-03 -3.261841e-03
6.000000e+09 2.525352e-03 -2.423155e-03 9.973025e-01 -1.966046e-02 9.973136e-01 -1.977682e-02 2.303515e-03 -3.336531e-03
6.133333e+09 2.531269e-03 -2.477996e-03 9.972898e-01 -2.009606e-02 9.973003e-01 -2.021472e-02 2.298230e-03 -3.411257e-03
6.266667e+09 2.537297e-03 -2.532897e-03 9.972769e-01 -2.053158e-02 9.972867e-01 -2.065253e-02 2.292817e-03 -3.486018e-03
6.400000e+09 2.543435e-03 -2.587862e-03 9.972637e-01 -2.096702e-02 9.972729e-01 -2.109023e-02 2.287273e-03 -3.560815e-03
6.533333e+09 2.549682e-03 -2.642889e-03 9.972502e-01 -2.140237e-02 9.972588e-01 -2.152784e-02 2.281598e-03 -3.635649e-03
6.666667e+09 2.556035e-03 -2.697981e-03 9.972365e-01 -2.183765e-02 9.972445e-01 -2.196535e-02 2.275792e-03 -3.710519e-03
6.800000e+09 2.562495e-03 -2.753138e-03 9.972226e-01 -2.227283e-02 9.972299e-01 -2.240275e-02 2.269853e-03 -3.785427e-03
6.933333e+09 2.569059e-03 -2.808360e-03 9.972084e-01 -2.270793e-02 9.972151e-01 -2.284006e-02 2.263781e-03 -3.860373e-03
7.066667e+09 2.575727e-03 -2.863650e-03 9.971939e-01 -2.314295e-02 9.972000e-01 -2.327726e-02 2.257575e-03 -3.935357e-03
7.200000e+09 2.582497e-03 -2.919006e-03 9.971792e-01 -2.357788e-02 9.971846e-01 -2.371435e-02 2.251234e-03 -4.010380e-03
7.333333e+09 2.589369e-03 -2.974431e-03 9.971643e-01 -2.401272e-02 9.971691e-01 -2.415134e-02 2.244758e-03 -4.085441e-03
7.466667e+09 2.596340e-03 -3.029925e-03 9.971491e-01 -2.444747e-02 9.971532e-01 -2.458822e-02 2.238144e-03 -4.160542e-03
7.600000e+09 2.603410e-03 -3.085489e-03 9.971337e-01 -2.488213e-02 9.971372e-01 -2.502500e-02 2.231394e-03 -4.235683e-03
7.733333e+09 2.610578e-03 -3.141123e-03 9.971180e-01 -2.531670e-02 9.971208e-01 -2.546166e-02 2.224504e-03 -4.310863e-03
7.866667e+09 2.617841e-03 -3.196828e-03 9.971021e-01 -2.575118e-02 9.971043e-01 -2.589822e-02 2.217476e-03 -4.386084e-03
8.000000e+09 2.625199e-03 -3.252604e-03 9.970860e-01 -2.618556e-02 9.970875e-01 -2.633467e-02 2.210307e-03 -4.461346e-03
8.133333e+09 2.632651e-03 -3.308453e-03 9.970696e-01 -2.661986e-02 9.970705e-01 -2.677101e-02 2.202998e-03 -4.536648e-03
8.266667e+09 2.640195e-03 -3.364375e-03 9.970530e-01 -2.705405e-02 9.970532e-01 -2.720723e-02 2.195546e-03 -4.611992e-03
8.400000e+09 2.647830e-03 -3.420370e-03 9.970362e-01 -2.748816e-02 9.970357e-01 -2.764335e-02 2.187952e-03 -4.687376e-03
8.533333e+09 2.655555e-03 -3.476439e-03 9.970191e-01 -2.792217e-02 9.970180e-01 -2.807935e-02 2.180214e-03 -4.762803e-03
8.666667e+09 2.663368e-03 -3.532583e-03 9.970018e-01 -2.835608e-02 9.970001e-01 -2.851525e-02 2.172331e-03 -4.838271e-03
8.800000e+09 2.671268e-03 -3.588801e-03 9.969842e-01 -2.878990e-02 9.969819e-01 -2.895102e-02 2.164303e-03 -4.913781e-03
8.933333e+09 2.679254e-03 -3.645095e-03 9.969665e-01 -2.922362e-02 9.969635e-01 -2.938669e-02 2.156128e-03 -4.989333e-03
9.066667e+09 2.687324e-03 -3.701464e-03 9.969485e-01 -2.965725e-02 9.969449e-01 -2.982224e-02 2.147806e-03 -5.064927e-03
9.200000e+09 2.695477e-03 -3.757910e-03 9.969303e-01 -3.009078e-02 9.969261e-01 -3.025768e-02 2.139336e-03 -5.140564e-03
9.333333e+09 2.703712e-03 -3.814433e-03 9.969118e-01 -3.052421e-02 9.969070e-01 -3.069300e-02 2.130717e-03 -5.216243e-03
9.466667e+09 2.712027e-03 -3.871032e-03 9.968932e-01 -3.095754e-02 9.968878e-01 -3.112821e-02 2.121947e-03 -5.291964e-03
9.600000e+09 2.720421e-03 -3.927709e-03 9.968743e-01 -3.139077e-02 9.968683e-01 -3.156330e-02 2.113026e-03 -5.367728e-03
9.733333e+09 2.728893e-03 -3.984463e-03 9.968552e-01 -3.182391e-02 9.968486e-01 -3.199828e-02 2.103954e-03 -5.443535e-03
9.866667e+09 2.737442e-03 -4.041296e-03 9.968359e-01 -3.225695e-02 9.968287e-01 -3.243315e-02 2.094728e-03 -5.519385e-03
1.000000e+10 2.746065e-03 -4.098206e-03 9.968164e-01 -3.268988e-02 9.968086e-01 -3.286790e-02 2.085349e-03 -5.595277e-03
1.013333e+10 2.754763e-03 -4.155195e-03 9.967967e-01 -3.312272e-02 9.967883e-01 -3.330253e-02 2.075815e-03 -5.671212e-03
1.026667e+10 2.763533e-03 -4.212263e-03 9.967767e-01 -3.355546e-02 9.967678e-01 -3.373705e-02 2.066125e-03 -5.747189e-03
1.040000e+10 2.772374e-03 -4.269409e-03 9.967566e-01 -3.398810e-02 9.967470e-01 -3.417146e-02 2.056279e-03 -5.823209e-03
1.053333e+10 2.781285e-03 -4.326635e-03 9.967362e-01 -3.442064e-02 9.967261e-01 -3.460575e-02 2.046275e-03 -5.899272e-03
1.066667e+10 2.790265e-03 -4.383939e-03 9.967156e-01 -3.485308e-02 9.967050e-01 -3.503993e-02 2.036112e-03 -5.975377e-03
1.080000e+10 2.799312e-03 -4.441323e-03 9.966948e-01 -3.528542e-02 9.966837e-01 -3.547399e-02 2.025791e-03 -6.051525e-03
1.093333e+10 2.808425e-03 -4.498786e-03 9.966738e-01 -3.571766e-02 9.966622e-01 -3.590794e-02 2.015309e-03 -6.127715e-03
1.106667e+10 2.817602e-03 -4.556329e-03 9.966527e-01 -3.614980e-02 9.966405e-01 -3.634177e-02 2.004665e-03 -6.203948e-03
1.120000e+10 2.826843e-03 -4.613951e-03 9.966313e-01 -3.658184e-02 9.966186e-01 -3.677550e-02 1.993860e-03 -6.280222e-03
1.133333e+10 2.836146e-03 -4.671653e-03 9.966097e-01 -3.701379e-02 9.965965e-01 -3.720911e-02 1.982892e-03 -6.356538e-03
1.146667e+10 2.845510e-03 -4.729434e-03 9.965879e-01 -3.744563e-02 9.965742e-01 -3.764261e-02 1.971759e-03 -6.432896e-03
1.160000e+10 2.854934e-03 -4.787295e-03 9.965659e-01 -3.787738e-02 9.965518e-01 -3.807599e-02 1.960462e-03 -6.509296e-03
1.173333e+10 2.864415e-03 -4.845235e-03 9.965437e-01 -3.830902e-02 9.965291e-01 -3.850927e-02 1.948999e-03 -6.585737e-03
1.186667e+10 2.873954e-03 -4.903255e-03 9.965213e-01 -3.874057e-02 9.965063e-01 -3.894244e-02 1.937370e-03 -6.662219e-03
1.200000e+10 2.883549e-03 -4.961354e-03 9.964988e-01 -3.917202e-02 9.964833e-01 -3.937549e-02 1.925573e-03 -6.738742e-03
1.213333e+10 2.893198e-03 -5.019532e-03 9.964760e-01 -3.960337e-02 9.964601e-01 -3.980844e-02 1.913607e-03 -6.815306e-03
1.226667e+10 2.902901e-03 -5.077790e-03 9.964530e-01 -4.003463e-02 9.964367e-01 -4.024127e-02 1.901472e-03 -6.891910e-03
1.240000e+10 2.912656e-03 -5.136126e-03 9.964299e-01 -4.046579e-02 9.964132e-01 -4.067400e-02 1.889167e-03 -6.968554e-03
1.253333e+10 2.922462e-03 -5.194542e-03 9.964066e-01 -4.089685e-02 9.963895e-01 -4.110662e-02 1.876691e-03 -7.045238e-03
1.266667e+10 2.932318e-03 -5.253036e-03 9.963831e-01 -4.132781e-02 9.963656e-01 -4.153914e-02 1.864043e-03 -7.121961e-03
1.280000e+10 2.942222e-03 -5.311608e-03 9.963594e-01 -4.175868e-02 9.963415e-01 -4.197155e-02 1.851222e-03 -7.198724e-03
1.293333e+10 2.952174e-03 -5.370259e-03 9.963355e-01 -4.218945e-02 9.963173e-01 -4.240385e-02 1.838228e-03 -7.275525e-03
1.306667e+10 2.962172e-03 -5.428988e-03 9.963114e-01 -4.262013e-02 9.962929e-01 -4.283605e-02 1.825059e-03 -7.352365e-03
1.320000e+10 2.972215e-03 -5.487795e-03 9.962871e-01 -4.305071e-02 9.962684e-01 -4.326815e-02 1.811715e-03 -7.429243e-03
1.333333e+10 2.982302e-03 -5.546679e-03 9.962627e-01 -4.348120e-02 9.962436e-01 -4.370015e-02 1.798195e-03 -7.506159e-03
1.346667e+10 2.992432e-03 -5.605641e-03 9.962381e-01 -4.391160e-02 9.962187e-01 -4.413204e-02 1.784497e-03 -7.583112e-03
1.360000e+10 3.002604e-03 -5.664680e-03 9.962133e-01 -4.434190e-02 9.961937e-01 -4.456384e-02 1.770622e-03 -7.660103e-03
1.373333e+10 3.012817e-03 -5.723795e-03 9.961883e-01 -4.477212e-02 9.961685e-01 -4.499553e-02 1.756569e-03 -7.737129e-03
1.386667e+10 3.023069e-03 -5.782987e-03 9.961632e-01 -4.520224e-02 9.961431e-01 -4.542713e-02 1.742336e-03 -7.814192e-03
1.400000e+10 3.033360e-03 -5.842254e-03 9.961379e-01 -4.563227e-02 9.961176e-01 -4.585862e-02 1.727922e-03 -7.891290e-03
1.413333e+10 3.043688e-03 -5.901597e-03 9.961124e-01 -4.606220e-02 9.960919e-01 -4.629003e-02 1.713328e-03 -7.968424e-03
1.426667e+10 3.054052e-03 -5.961016e-03 9.960867e-01 -4.649205e-02 9.960660e-01 -4.672133e-02 1.698552e-03 -8.045592e-03
1.440000e+10 3.064453e-03 -6.020509e-03 9.960609e-01 -4.692182e-02 9.960400e-01 -4.715255e-02 1.683594e-03 -8.122794e-03
1.453333e+10 3.074887e-03 -6.080077e-03 9.960349e-01 -4.735149e-02 9.960138e-01 -4.758367e-02 1.668452e-03 -8.200030e-03
1.466667e+10 3.085355e-03 -6.139719e-03 9.960087e-01 -4.778108e-02 9.959875e-01 -4.801470e-02 1.653126e-03 -8.277300e-03
1.480000e+10 3.095855e-03 -6.199434e-03 9.959824e-01 -4.821058e-02 9.959611e-01 -4.844564e-02 1.637616e-03 -8.354602e-03
1.493333e+10 3.106387e-03 -6.259223e-03 9.959559e-01 -4.863999e-02 9.959344e-01 -4.887648e-02 1.621920e-03 -8.431936e-03
1.506667e+10 3.116949e-03 -6.319084e-03 9.959292e-01 -4.906932e-02 9.959077e-01 -4.930725e-02 1.606038e-03 -8.509301e-03
1.520000e+10 3.127541e-03 -6.379017e-03 9.959023e-01 -4.949856e-02 9.958808e-01 -4.973792e-02 1.589968e-03 -8.586698e-03
1.533333e+10 3.138162e-03 -6.439022e-03 9.958753e-01 -4.992773e-02 9.958537e-01 -5.016851e-02 1.573712e-03 -8.664126e-03
1.546667e+10 3.148810e-03 -6.499099e-03 9.958482e-01 -5.035681e-02 9.958265e-01 -5.059901e-02 1.557266e-03 -8.741583e-03
1.560000e+10 3.159486e-03 -6.559246e-03 9.958208e-01 -5.078580e-02 9.957991e-01 -5.102943e-02 1.540632e-03 -8.819069e-03
1.573333e+10 3.170187e-03 -6.619463e-03 9.957933e-01 -5.121472e-02 9.957716e-01 -5.145977e-02 1.523808e-03 -8.896585e-03
1.586667e+10 3.180913e-03 -6.679750e-03 9.957657e-01 -5.164356e-02 9.957440e-01 -5.189003e-02 1.506794e-03 -8.974128e-03
1.600000e+10 3.191664e-03 -6.740106e-03 9.957379e-01 -5.207232e-02 9.957162e-01 -5.232021e-02 1.489589e-03 -9.051699e-03
1.613333e+10 3.202438e-03 -6.800531e-03 9.957099e-01 -5.250100e-02 9.956883e-01 -5.275031e-02 1.472192e-03 -9.129297e-03
1.626667e+10 3.213235e-03 -6.861023e-03 9.956818e-01 -5.292961e-02 9.956602e-01 -5.318033e-02 1.454603e-03 -9.206921e-03
1.640000e+10 3.224054e-03 -6.921584e-03 9.956535e-01 -5.335814e-02 9.956320e-01 -5.361028e-02 1.436821e-03 -9.284571e-03
1.653333e+10 3.234894e-03 -6.982211e-03 9.956250e-01 -5.378659e-02 9.956036e-01 -5.404016e-02 1.418846e-03 -9.362246e-03
1.666667e+10 3.245755e-03 -7.042904e-03 9.955964e-01 -5.421497e-02 9.955751e-01 -5.446996e-02 1.400677e-03 -9.439945e-03
1.680000e+10 3.256635e-03 -7.103663e-03 9.955676e-01 -5.464328e-02 9.955465e-01 -5.489969e-02 1.382312e-03 -9.517668e-03
1.693333e+10 3.267534e-03 -7.164487e-03 9.955387e-01 -5.507151e-02 9.955177e-01 -5.532936e-02 1.363753e-03 -9.595414e-03
1.706667e+10 3.278451e-03 -7.225376e-03 9.955096e-01 -5.549968e-02 9.954888e-01 -5.575895e-02 1.344998e-03 -9.673182e-03
1.720000e+10 3.289386e-03 -7.286328e-03 9.954804e-01 -5.592777e-02 9.954597e-01 -5.618848e-02 1.326046e-03 -9.750972e-03
1.733333e+10 3.300338e-03 -7.347344e-03 9.954510e-01 -5.635580e-02 9.954305e-01 -5.661794e-02 1.306898e-03 -9.828783e-03
1.746667e+10 3.311306e-03 -7.408423e-03 9.954215e-01 -5.678376e-02 9.954012e-01 -5.704734e-02 1.287552e-03 -9.906614e-03
1.760000e+10 3.322290e-03 -7.469563e-03 9.953918e-01 -5.721165e-02 9.953717e-01 -5.747667e-02 1.268008e-03 -9.984465e-03
1.773333e+10 3.333288e-03 -7.530765e-03 9.953620e-01 -5.763947e-02 9.953422e-01 -5.790594e-02 1.248265e-03 -1.006233e-02
1.786667e+10 3.344301e-03 -7.592028e-03 9.953320e-01 -5.806723e-02 9.953124e-01 -5.833515e-02 1.228324e-03 -1.014022e-02
1.800000e+10 3.355328e-03 -7.653350e-03 9.953018e-01 -5.849493e-02 9.952825e-01 -5.876431e-02 1.208183e-03 -1.021813e-02
1.813333e+10 3.366368e-03 -7.714732e-03 9.952716e-01 -5.892256e-02 9.952525e-01 -5.919340e-02 1.187842e-03 -1.029605e-02
1.826667e+10 3.377421e-03 -7.776173e-03 9.952411e-01 -5.935014e-02 9.952224e-01 -5.962245e-02 1.167301e-03 -1.037399e-02
1.840000e+10 3.388486e-03 -7.837672e-03 9.952105e-01 -5.977765e-02 9.951921e-01 -6.005143e-02 1.146559e-03 -1.045194e-02
1.853333e+10 3.399562e-03 -7.899229e-03 9.951798e-01 -6.020510e-02 9.951617e-01 -6.048036e-02 1.125616e-03 -1.052991e-02
1.866667e+10 3.410650e-03 -7.960842e-03 9.951489e-01 -6.063249e-02 9.951312e-01 -6.090925e-02 1.104471e-03 -1.060789e-02
1.880000e+10 3.421748e-03 -8.022512e-03 9.951179e-01 -6.105983e-02 9.951005e-01 -6.133808e-02 1.083123e-03 -1.068588e-02
1.893333e+10 3.432857e-03 -8.084237e-03 9.950867e-01 -6.148711e-02 9.950697e-01 -6.176686e-02 1.061574e-03 -1.076389e-02
1.906667e+10 3.443975e-03 -8.146016e-03 9.950553e-01 -6.191433e-02 9.950387e-01 -6.219559e-02 1.039821e-03 -1.084191e-02
1.920000e+10 3.455103e-03 -8.207850e-03 9.950239e-01 -6.234151e-02 9.950077e-01 -6.262428e-02 1.017865e-03 -1.091994e-02
1.933333e+10 3.466240e-03 -8.269737e-03 9.949922e-01 -6.276862e-02 9.949764e-01 -6.305293e-02 9.957055e-04 -1.099798e-02
1.946667e+10 3.477385e-03 -8.331678e-03 9.949604e-01 -6.319569e-02 9.949451e-01 -6.348153e-02 9.733417e-04 -1.107603e-02
1.960000e+10 3.488538e-03 -8.393670e-03 9.949285e-01 -6.362270e-02 9.949136e-01 -6.391008e-02 9.507736e-04 -1.115408e-02
1.973333e+10 3.499699e-03 -8.455713e-03 9.948965e-01 -6.404967e-02 9.948820e-01 -6.433860e-02 9.280007e-04 -1.123215e-02
1.986667e+10 3.510868e-03 -8.517808e-03 9.948642e-01 -6.447658e-02 9.948502e-01 -6.476708e-02 9.050228e-04 -1.131022e-02
2.000000e+10 3.522043e-03 -8.579952e-03 9.948319e-01 -6.490345e-02 9.948184e-01 -6.519552e-02 8.818394e-04 -1.138830e-02
2.013333e+10 3.533225e-03 -8.642146e-03 9.947994e-01 -6.533027e-02 9.947863e-01 -6.562392e-02 8.584504e-04 -1.146638e-02
2.026667e+10 3.544414e-03 -8.704389e-03 9.947667e-01 -6.575705e-02 9.947542e-01 -6.605229e-02 8.348554e-04 -1.154447e-02
2.040000e+10 3.555609e-03 -8.766679e-03 9.947339e-01 -6.618378e-02 9.947219e-01 -6.648062e-02 8.110541e-04 -1.162256e-02
2.053333e+10 3.566810e-03 -8.829017e-03 9.947010e-01 -6.661046e-02 9.946895e-01 -6.690892e-02 7.870462e-04 -1.170065e-02
2.066667e+10 3.578017e-03 -8.891402e-03 9.946679e-01 -6.703711e-02 9.946569e-01 -6.733719e-02 7.628316e-04 -1.177875e-02
2.080000e+10 3.589229e-03 -8.953833e-03 9.946346e-01 -6.746371e-02 9.946242e-01 -6.776543e-02 7.384099e-04 -1.185685e-02
2.093333e+10 3.600446e-03 -9.016309e-03 9.946012e-01 -6.789027e-02 9.945914e-01 -6.819363e-02 7.137809e-04 -1.193495e-02
2.106667e+10 3.611668e-03 -9.078830e-03 9.945677e-01 -6.831680e-02 9.945584e-01 -6.862181e-02 6.889444e-04 -1.201305e-02
2.120000e+10 3.622896e-03 -9.141395e-03 9.945340e-01 -6.874328e-02 9.945253e-01 -6.904997e-02 6.639001e-04 -1.209115e-02
2.133333e+10 3.634127e-03 -9.204004e-03 9.945002e-01 -6.916973e-02 9.944921e-01 -6.947810e-02 6.386479e-04 -1.216924e-02
2.146667e+10 3.645363e-03 -9.266655e-03 9.944662e-01 -6.959614e-02 9.944587e-01 -6.990620e-02 6.131876e-04 -1.224734e-02
2.160000e+10 3.656604e-03 -9.329348e-03 9.944321e-01 -7.002251e-02 9.944252e-01 -7.033428e-02 5.875189e-04 -1.232543e-02
2.173333e+10 3.667849e-03 -9.392083e-03 9.943978e-01 -7.044885e-02 9.943916e-01 -7.076234e-02 5.616418e-04 -1.240352e-02
2.186667e+10 3.679097e-03 -9.454859e-03 9.943634e-01 -7.087516e-02 9.943578e-01 -7.119038e-02 5.355559e-04 -1.248160e-02
2.200000e+10 3.690350e-03 -9.517674e-03 9.943289e-01 -7.130144e-02 9.943239e-01 -7.161839e-02 5.092613e-04 -1.255968e-02
2.213333e+10 3.701606e-03 -9.580530e-03 9.942942e-01 -7.172768e-02 9.942898e-01 -7.204639e-02 4.827576e-04 -1.263775e-02
2.226667e+10 3.712867e-03 -9.643424e-03 9.942593e-01 -7.215389e-02 9.942556e-01 -7.247437e-02 4.560449e-04 -1.271581e-02
2.240000e+10 3.724131e-03 -9.706356e-03 9.942243e-01 -7.258008e-02 9.942213e-01 -7.290234e-02 4.291230e-04 -1.279386e-02
2.253333e+10 3.735398e-03 -9.769326e-03 9.941892e-01 -7.300623e-02 9.941868e-01 -7.333029e-02 4.019917e-04 -1.287191e-02
2.266667e+10 3.746669e-03 -9.832333e-03 9.941539e-01 -7.343236e-02 9.941522e-01 -7.375822e-02 3.746509e-04 -1.294995e-02
2.280000e+10 3.757944e-03 -9.895377e-03 9.941184e-01 -7.385846e-02 9.941174e-01 -7.418615e-02 3.471006e-04 -1.302798e-02
2.293333e+10 3.769223e-03 -9.958456e-03 9.940829e-01 -7.428453e-02 9.940825e-01 -7.461405e-02 3.193407e-04 -1.310599e-02
2.306667e+10 3.780505e-03 -1.002157e-02 9.940471e-01 -7.471058e-02 9.940475e-01 -7.504195e-02 2.913711e-04 -1.318400e-02
2.320000e+10 3.791790e-03 -1.008472e-02 9.940112e-01 -7.513661e-02 9.940123e-01 -7.546984e-02 2.631917e-04 -1.326199e-02
2.333333e+10 3.803079e-03 -1.014790e-02 9.939752e-01 -7.556261e-02 9.939769e-01 -7.589772e-02 2.348024e-04 -1.333997e-02
2.346667e+10 3.814372e-03 -1.021112e-02 9.939390e-01 -7.598859e-02 9.939414e-01 -7.632559e-02 2.062033e-04 -1.341793e-02
2.360000e+10 3.825668e-03 -1.027437e-02 9.939027e-01 -7.641455e-02 9.939058e-01 -7.675345e-02 1.773943e-04 -1.349588e-02
2.373333e+10 3.836968e-03 -1.033765e-02 9.938662e-01 -7.684048e-02 9.938701e-01 -7.718130e-02 1.483754e-04 -1.357382e-02
2.386667e+10 3.848272e-03 -1.040097e-02 9.938296e-01 -7.726640e-02 9.938341e-01 -7.760915e-02 1.191464e-04 -1.365174e-02
2.400000e+10 3.859580e-03 -1.046431e-02 9.937928e-01 -7.769230e-02 9.937981e-01 -7.803699e-02 8.970754e-05 -1.372964e-02
2.413333e+10 3.870891e-03 -1.052769e-02 9.937559e-01 -7.811818e-02 9.937619e-01 -7.846483e-02 6.005866e-05 -1.380752e-02
2.426667e+10 3.882207e-03 -1.059109e-02 9.937188e-01 -7.854404e-02 9.937255e-01 -7.889267e-02 3.019980e-05 -1.388539e-02
2.440000e+10 3.893527e-03 -1.065453e-02 9.936816e-01 -7.896989e-02 9.936890e-01 -7.932050e-02 1.309770e-07 -1.396323e-02
2.453333e+10 3.904851e-03 -1.071799e-02 9.936442e-01 -7.939572e-02 9.936523e-01 -7.974833e-02 -3.014779e-05 -1.404106e-02
2.466667e+10 3.916179e-03 -1.078148e-02 9.936066e-01 -7.982154e-02 9.936155e-01 -8.017617e-02 -6.063646e-05 -1.411886e-02
2.480000e+10 3.927512e-03 -1.084500e-02 9.935689e-01 -8.024734e-02 9.935786e-01 -8.060400e-02 -9.133501e-05 -1.419665e-02
2.493333e+10 3.938850e-03 -1.090855e-02 9.935311e-01 -8.067313e-02 9.935415e-01 -8.103183e-02 -1.222434e-04 -1.427441e-02
2.506667e+10 3.950193e-03 -1.097213e-02 9.934931e-01 -8.109890e-02 9.935042e-01 -8.145966e-02 -1.533615e-04 -1.435215e-02
2.520000e+10 3.961540e-03 -1.103573e-02 9.934550e-01 -8.152467e-02 9.934668e-01 -8.188749e-02 -1.846894e-04 -1.442986e-02
2.533333e+10 3.972893e-03 -1.109936e-02 9.934167e-01 -8.195042e-02 9.934292e-01 -8.231533e-02 -2.162269e-04 -1.450755e-02
2.546667e+10 3.984251e-03 -1.116301e-02 9.933782e-01 -8.237616e-02 9.933915e-01 -8.274316e-02 -2.479739e-04 -1.458522e-02
2.560000e+10 3.995614e-03 -1.122669e-02 9.933396e-01 -8.280189e-02 9.933536e-01 -8.317101e-02 -2.799305e-04 -1.466286e-02
2.573333e+10 4.006984e-03 -1.129039e-02 9.933008e-01 -8.322761e-02 9.933156e-01 -8.359885e-02 -3.120964e-04 -1.474047e-02
2.586667e+10 4.018359e-03 -1.135412e-02 9.932619e-01 -8.365333e-02 9.932774e-01 -8.402670e-02 -3.444716e-04 -1.481806e-02
2.600000e+10 4.029741e-03 -1.141787e-02 9.932228e-01 -8.407903e-02 9.932390e-01 -8.445456e-02 -3.770560e-04 -1.489561e-02
2.613333e+10 4.041128e-03 -1.148164e-02 9.931836e-01 -8.450473e-02 9.932005e-01 -8.488242e-02 -4.098494e-04 -1.497314e-02
2.626667e+10 4.052523e-03 -1.154544e-02 9.931442e-01 -8.493042e-02 9.931618e-01 -8.531029e-02 -4.428518e-04 -1.505064e-02
2.640000e+10 4.063924e-03 -1.160926e-02 9.931046e-01 -8.535610e-02 9.931230e-01 -8.573816e-02 -4.760631e-04 -1.512811e-02
2.653333e+10 4.075333e-03 -1.167310e-02 9.930649e-01 -8.578178e-02 9.930840e-01 -8.616605e-02 -5.094830e-04 -1.520555e-02
2.666667e+10 4.086748e-03 -1.173696e-02 9.930250e-01 -8.620746e-02 9.930449e-01 -8.659394e-02 -5.431114e-04 -1.528296e-02
2.680000e+10 4.098172e-03 -1.180084e-02 9.929850e-01 -8.663313e-02 9.930055e-01 -8.702183e-02 -5.769483e-04 -1.536034e-02
2.693333e+10 4.109603e-03 -1.186475e-02 9.929448e-01 -8.705879e-02 9.929661e-01 -8.744974e-02 -6.109934e-04 -1.543768e-02
2.706667e+10 4.121043e-03 -1.192867e-02 9.929045e-01 -8.748445e-02 9.929264e-01 -8.787765e-02 -6.452466e-04 -1.551499e-02
2.720000e+10 4.132491e-03 -1.199262e-02 9.928639e-01 -8.791011e-02 9.928866e-01 -8.830558e-02 -6.797077e-04 -1.559227e-02
2.733333e+10 4.143947e-03 -1.205658e-02 9.928233e-01 -8.833577e-02 9.928466e-01 -8.873351e-02 -7.143765e-04 -1.566951e-02
2.746667e+10 4.155413e-03 -1.212057e-02 9.927824e-01 -8.876142e-02 9.928065e-01 -8.916146e-02 -7.492530e-04 -1.574672e-02
2.760000e+10 4.166887e-03 -1.218457e-02 9.927414e-01 -8.918708e-02 9.927662e-01 -8.958941e-02 -7.843368e-04 -1.582389e-02
2.773333e+10 4.178372e-03 -1.224859e-02 9.927003e-01 -8.961273e-02 9.927257e-01 -9.001738e-02 -8.196279e-04 -1.590102e-02
2.786667e+10 4.189866e-03 -1.231263e-02 9.926589e-01 -9.003838e-02 9.926850e-01 -9.044535e-02 -8.551259e-04 -1.597812e-02
2.800000e+10 4.201371e-03 -1.237669e-02 9.926174e-01 -9.046403e-02 9.926442e-01 -9.087334e-02 -8.908308e-04 -1.605518e-02
2.813333e+10 4.212886e-03 -1.244077e-02 9.925758e-01 -9.088968e-02 9.926032e-01 -9.130134e-02 -9.267423e-04 -1.613220e-02
2.826667e+10 4.224412e-03 -1.250486e-02 9.925340e-01 -9.131533e-02 9.925621e-01 -9.172935e-02 -9.628602e-04 -1.620919e-02
2.840000e+10 4.235949e-03 -1.256897e-02 9.924920e-01 -9.174099e-02 9.925207e-01 -9.215737e-02 -9.991843e-04 -1.628613e-02
2.853333e+10 4.247497e-03 -1.263310e-02 9.924498e-01 -9.216664e-02 9.924792e-01 -9.258540e-02 -1.035714e-03 -1.636303e-02
2.866667e+10 4.259057e-03 -1.269724e-02 9.924075e-01 -9.259230e-02 9.924375e-01 -9.301345e-02 -1.072450e-03 -1.643989e-02
2.880000e+10 4.270630e-03 -1.276140e-02 9.923650e-01 -9.301795e-02 9.923957e-01 -9.344150e-02 -1.109392e-03 -1.651672e-02
2.893333e+10 4.282214e-03 -1.282558e-02 9.923224e-01 -9.344361e-02 9.923537e-01 -9.386957e-02 -1.146538e-03 -1.659349e-02
2.906667e+10 4.293812e-03 -1.288977e-02 9.922795e-01 -9.386928e-02 9.923114e-01 -9.429765e-02 -1.183890e-03 -1.667023e-02
2.920000e+10 4.305423e-03 -1.295398e-02 9.922365e-01 -9.429494e-02 9.922691e-01 -9.472575e-02 -1.221446e-03 -1.674692e-02
2.933333e+10 4.317047e-03 -1.301820e-02 9.921934e-01 -9.472061e-02 9.922265e-01 -9.515385e-02 -1.259207e-03 -1.682357e-02
2.946667e+10 4.328685e-03 -1.308244e-02 9.921500e-01 -9.514628e-02 9.921837e-01 -9.558197e-02 -1.297173e-03 -1.690018e-02
2.960000e+10 4.340337e-03 -1.314670e-02 9.921065e-01 -9.557196e-02 9.921408e-01 -9.601010e-02 -1.335342e-03 -1.697674e-02
2.973333e+10 4.352004e-03 -1.321096e-02 9.920628e-01 -9.599764e-02 9.920977e-01 -9.643825e-02 -1.373716e-03 -1.705326e-02
2.986667e+10 4.363686e-03 -1.327525e-02 9.920190e-01 -9.642333e-02 9.920544e-01 -9.686640e-02 -1.412292e-03 -1.712973e-02
3.000000e+10 4.375383e-03 -1.333954e-02 9.919749e-01 -9.684902e-02 9.920110e-01 -9.729457e-02 -1.451072e-03 -1.720615e-02
3.013333e+10 4.387095e-03 -1.340385e-02 9.919307e-01 -9.727471e-02 9.919673e-01 -9.772275e-02 -1.490056e-03 -1.728253e-02
3.026667e+10 4.398824e-03 -1.346818e-02 9.918864e-01 -9.770041e-02 9.919235e-01 -9.815095e-02 -1.529242e-03 -1.735886e-02
3.040000e+10 4.410569e-03 -1.353252e-02 9.918418e-01 -9.812611e-02 9.918795e-01 -9.857915e-02 -1.568630e-03 -1.743514e-02
3.053333e+10 4.422330e-03 -1.359687e-02 9.917971e-01 -9.855182e-02 9.918353e-01 -9.900737e-02 -1.608220e-03 -1.751137e-02
3.066667e+10 4.434109e-03 -1.366123e-02 9.917522e-01 -9.897754e-02 9.917909e-01 -9.943560e-02 -1.648013e-03 -1.758756e-02
3.080000e+10 4.445905e-03 -1.372561e-02 9.917071e-01 -9.940326e-02 9.917463e-01 -9.986384e-02 -1.688007e-03 -1.766369e-02
3.093333e+10 4.457719e-03 -1.379001e-02 9.916618e-01 -9.982898e-02 9.917015e-01 -1.002921e-01 -1.728203e-03 -1.773978e-02
3.106667e+10 4.469551e-03 -1.385441e-02 9.916164e-01 -1.002547e-01 9.916566e-01 -1.007204e-01 -1.768599e-03 -1.781581e-02
3.120000e+10 4.481401e-03 -1.391883e-02 9.915708e-01 -1.006805e-01 9.916115e-01 -1.011486e-01 -1.809196e-03 -1.789179e-02
3.133333e+10 4.493270e-03 -1.398326e-02 9.915250e-01 -1.011062e-01 9.915661e-01 -1.015769e-01 -1.849994e-03 -1.796773e-02
3.146667e+10 4.505159e-03 -1.404770e-02 9.914790e-01 -1.015319e-01 9.915206e-01 -1.020052e-01 -1.890992e-03 -1.804361e-02
3.160000e+10 4.517067e-03 -1.411216e-02 9.914329e-01 -1.019577e-01 9.914749e-01 -1.024335e-01 -1.932190e-03 -1.811944e-02
3.173333e+10 4.528995e-03 -1.417663e-02 9.913865e-01 -1.023835e-01 9.914290e-01 -1.028619e-01 -1.973588e-03 -1.819521e-02
3.186667e+10 4.540944e-03 -1.424111e-02 9.913400e-01 -1.028092e-01 9.913829e-01 -1.032902e-01 -2.015184e-03 -1.827093e-02
3.200000e+10 4.552913e-03 -1.430561e-02 9.912933e-01 -1.032350e-01 9.913367e-01 -1.037185e-01 -2.056980e-03 -1.834660e-02
3.213333e+10 4.564903e-03 -1.437011e-02 9.912465e-01 -1.036608e-01 9.912902e-01 -1.041469e-01 -2.098974e-03 -1.842222e-02
3.226667e+10 4.576915e-03 -1.443463e-02 9.911994e-01 -1.040866e-01 9.912435e-01 -1.045753e-01 -2.141167e-03 -1.849778e-02
3.240000e+10 4.588949e-03 -1.449916e-02 9.911522e-01 -1.045124e-01 9.911967e-01 -1.050036e-01 -2.183558e-03 -1.857328e-02
3.253333e+10 4.601004e-03 -1.456371e-02 9.911047e-01 -1.049382e-01 9.911496e-01 -1.054320e-01 -2.226147e-03 -1.864873e-02
3.266667e+10 4.613083e-03 -1.462826e-02 9.910571e-01 -1.053640e-01 9.911024e-01 -1.058604e-01 -2.268933e-03 -1.872412e-02
3.280000e+10 4.625184e-03 -1.469283e-02 9.910093e-01 -1.057898e-01 9.910549e-01 -1.062888e-01 -2.311916e-03 -1.879946e-02
3.293333e+10 4.637308e-03 -1.475741e-02 9.909613e-01 -1.062156e-01 9.910073e-01 -1.067172e-01 -2.355096e-03 -1.887474e-02
3.306667e+10 4.649457e-03 -1.482200e-02 9.909132e-01 -1.066414e-01 9.909594e-01 -1.071456e-01 -2.398472e-03 -1.894997e-02
3.320000e+10 4.661629e-03 -1.488661e-02 9.908648e-01 -1.070673e-01 9.909114e-01 -1.075740e-01 -2.442045e-03 -1.902513e-02
3.333333e+10 4.673825e-03 -1.495122e-02 9.908163e-01 -1.074931e-01 9.908632e-01 -1.080025e-01 -2.485813e-03 -1.910024e-02
3.346667e+10 4.686046e-03 -1.501585e-02 9.907675e-01 -1.079189e-01 9.908148e-01 -1.084309e-01 -2.529777e-03 -1.917529e-02
3.360000e+10 4.698293e-03 -1.508049e-02 9.907186e-01 -1.083448e-01 9.907661e-01 -1.088594e-01 -2.573937e-03 -1.925028e-02
3.373333e+10 4.710564e-03 -1.514515e-02 9.906695e-01 -1.087706e-01 9.907173e-01 -1.092878e-01 -2.618291e-03 -1.932521e-02
3.386667e+10 4.722862e-03 -1.520981e-02 9.906202e-01 -1.091965e-01 9.906683e-01 -1.097163e-01 -2.662839e-03 -1.940009e-02
3.400000e+10 4.735185e-03 -1.527449e-02 9.905707e-01 -1.096224e-01 9.906190e-01 -1.101447e-01 -2.707582e-03 -1.947490e-02
3.413333e+10 4.747535e-03 -1.533918e-02 9.905211e-01 -1.100482e-01 9.905696e-01 -1.105732e-01 -2.752519e-03 -1.954965e-02
3.426667e+10 4.759912e-03 -1.540388e-02 9.904712e-01 -1.104741e-01 9.905200e-01 -1.110017e-01 -2.797650e-03 -1.962435e-02
3.440000e+10 4.772316e-03 -1.546860e-02 9.904212e-01 -1.109000e-01 9.904702e-01 -1.114301e-01 -2.842973e-03 -1.969898e-02
3.453333e+10 4.784747e-03 -1.553333e-02 9.903709e-01 -1.113259e-01 9.904201e-01 -1.118586e-01 -2.888490e-03 -1.977355e-02
3.466667e+10 4.797207e-03 -1.559807e-02 9.903205e-01 -1.117518e-01 9.903699e-01 -1.122871e-01 -2.934199e-03 -1.984806e-02
3.480000e+10 4.809694e-03 -1.566282e-02 9.902698e-01 -1.121777e-01 9.903195e-01 -1.127156e-01 -2.980101e-03 -1.992251e-02
3.493333e+10 4.822210e-03 -1.572759e-02 9.902190e-01 -1.126036e-01 9.902688e-01 -1.131441e-01 -3.026194e-03 -1.999689e-02
3.506667e+10 4.834754e-03 -1.579236e-02 9.901680e-01 -1.130295e-01 9.902180e-01 -1.135726e-01 -3.072480e-03 -2.007122e-02
3.520000e+10 4.847328e-03 -1.585716e-02 9.901168e-01 -1.134554e-01 9.901670e-01 -1.140011e-01 -3.118956e-03 -2.014548e-02
3.533333e+10 4.859931e-03 -1.592196e-02 9.900654e-01 -1.138813e-01 9.901157e-01 -1.144296e-01 -3.165624e-03 -2.021967e-02
3.546667e+10 4.872565e-03 -1.598678e-02 9.900138e-01 -1.143072e-01 9.900643e-01 -1.148581e-01 -3.212482e-03 -2.029381e-02
3.560000e+10 4.885228e-03 -1.605161e-02 9.899620e-01 -1.147332e-01 9.900126e-01 -1.152866e-01 -3.259530e-03 -2.036788e-02
3.573333e+10 4.897921e-03 -1.611645e-02 9.899100e-01 -1.151591e-01 9.899607e-01 -1.157150e-01 -3.306769e-03 -2.044189e-02
3.586667e+10 4.910645e-03 -1.618131e-02 9.898579e-01 -1.155850e-01 9.899087e-01 -1.161435e-01 -3.354197e-03 -2.051583e-02
3.600000e+10 4.923401e-03 -1.624618e-02 9.898055e-01 -1.160109e-01 9.898564e-01 -1.165720e-01 -3.401815e-03 -2.058970e-02
3.613333e+10 4.936187e-03 -1.631107e-02 9.897529e-01 -1.164369e-01 9.898039e-01 -1.170005e-01 -3.449622e-03 -2.066352e-02
3.626667e+10 4.949006e-03 -1.637597e-02 9.897001e-01 -1.168628e-01 9.897512e-01 -1.174290e-01 -3.497617e-03 -2.073726e-02
3.640000e+10 4.961856e-03 -1.644088e-02 9.896472e-01 -1.172887e-01 9.896984e-01 -1.178575e-01 -3.545801e-03 -2.081095e-02
3.653333e+10 4.974738e-03 -1.650581e-02 9.895940e-01 -1.177147e-01 9.896453e-01 -1.182860e-01 -3.594173e-03 -2.088456e-02
3.666667e+10 4.987653e-03 -1.657075e-02 9.895406e-01 -1.181406e-01 9.895920e-01 -1.187145e-01 -3.642733e-03 -2.095811e-02
3.680000e+10 5.000601e-03 -1.663570e-02 9.894871e-01 -1.185666e-01 9.895385e-01 -1.191429e-01 -3.691480e-03 -2.103160e-02
3.693333e+10 5.013581e-03 -1.670067e-02 9.894333e-01 -1.189925e-01 9.894847e-01 -1.195714e-01 -3.740415e-03 -2.110502e-02
3.706667e+10 5.026595e-03 -1.676566e-02 9.893794e-01 -1.194184e-01 9.894308e-01 -1.199999e-01 -3.789536e-03 -2.117837e-02
3.720000e+10 5.039643e-03 -1.683066e-02 9.893252e-01 -1.198444e-01 9.893767e-01 -1.204283e-01 -3.838843e-03 -2.125165e-02
3.733333e+10 5.052725e-03 -1.689567e-02 9.892709e-01 -1.202703e-01 9.893224e-01 -1.208568e-01 -3.888337e-03 -2.132487e-02
3.746667e+10 5.065840e-03 -1.696070e-02 9.892163e-01 -1.206963e-01 9.892678e-01 -1.212853e-01 -3.938017e-03 -2.139802e-02
3.760000e+10 5.078991e-03 -1.702575e-02 9.891616e-01 -1.211222e-01 9.892131e-01 -1.217137e-01 -3.987882e-03 -2.147110e-02
3.773333e+10 5.092176e-03 -1.709081e-02 9.891066e-01 -1.215482e-01 9.891581e-01 -1.221421e-01 -4.037933e-03 -2.154411e-02
3.786667e+10 5.105395e-03 -1.715589e-02 9.890515e-01 -1.219741e-01 9.891029e-01 -1.225706e-01 -4.088169e-03 -2.161706e-02
3.800000e+10 5.118650e-03 -1.722098e-02 9.889961e-01 -1.224000e-01 9.890476e-01 -1.229990e-01 -4.138589e-03 -2.168994e-02
3.813333e+10 5.131941e-03 -1.728609e-02 9.889406e-01 -1.228260e-01 9.889920e-01 -1.234274e-01 -4.189193e-03 -2.176275e-02
3.826667e+10 5.145267e-03 -1.735121e-02 9.888848e-01 -1.232519e-01 9.889362e-01 -1.238558e-01 -4.239982e-03 -2.183549e-02
3.840000e+10 5.158629e-03 -1.741636e-02 9.888289e-01 -1.236778e-01 9.888802e-01 -1.242842e-01 -4.290954e-03 -2.190816e-02
3.853333e+10 5.172027e-03 -1.748152e-02 9.887727e-01 -1.241038e-01 9.888240e-01 -1.247126e-01 -4.342110e-03 -2.198076e-02
3.866667e+10 5.185462e-03 -1.754669e-02 9.887163e-01 -1.245297e-01 9.887676e-01 -1.251409e-01 -4.393448e-03 -2.205329e-02
3.880000e+10 5.198933e-03 -1.761188e-02 9.886598e-01 -1.249556e-01 9.887110e-01 -1.255693e-01 -4.444970e-03 -2.212576e-02
3.893333e+10 5.212441e-03 -1.767710e-02 9.886030e-01 -1.253815e-01 9.886541e-01 -1.259976e-01 -4.496674e-03 -2.219815e-02
3.906667e+10 5.225986e-03 -1.774232e-02 9.885460e-01 -1.258075e-01 9.885971e-01 -1.264260e-01 -4.548560e-03 -2.227047e-02
3.920000e+10 5.239568e-03 -1.780757e-02 9.884889e-01 -1.262334e-01 9.885398e-01 -1.268543e-01 -4.600629e-03 -2.234273e-02
3.933333e+10 5.253188e-03 -1.787283e-02 9.884315e-01 -1.266593e-01 9.884824e-01 -1.272826e-01 -4.652878e-03 -2.241491e-02
3.946667e+10 5.266845e-03 -1.793811e-02 9.883739e-01 -1.270852e-01 9.884247e-01 -1.277109e-01 -4.705310e-03 -2.248702e-02
3.960000e+10 5.280541e-03 -1.800342e-02 9.883162e-01 -1.275111e-01 9.883669e-01 -1.281392e-01 -4.757922e-03 -2.255906e-02
3.973333e+10 5.294274e-03 -1.806873e-02 9.882582e-01 -1.279370e-01 9.883088e-01 -1.285674e-01 -4.810715e-03 -2.263103e-02
3.986667e+10 5.308045e-03 -1.813407e-02 9.882000e-01 -1.283628e-01 9.882505e-01 -1.289957e-01 -4.863689e-03 -2.270293e-02
4.000000e+10 5.321855e-03 -1.819943e-02 9.881416e-01 -1.287887e-01 9.881920e-01 -1.294239e-01 -4.916842e-03 -2.277476e-02
4.013333e+10 5.335704e-03 -1.826481e-02 9.880830e-01 -1.292146e-01 9.881333e-01 -1.298521e-01 -4.970176e-03 -2.284652e-02
4.026667e+10 5.349592e-03 -1.833020e-02 9.880242e-01 -1.296405e-01 9.880744e-01 -1.302803e-01 -5.023689e-03 -2.291821e-02
4.040000e+10 5.363518e-03 -1.839562e-02 9.879652e-01 -1.300663e-01 9.880153e-01 -1.307085e-01 -5.077382e-03 -2.298982e-02
4.053333e+10 5.377484e-03 -1.846106e-02 9.879060e-01 -1.304922e-01 9.879559e-01 -1.311367e-01 -5.131254e-03 -2.306136e-02
4.066667e+10 5.391488e-03 -1.852651e-02 9.878466e-01 -1.309180e-01 9.878964e-01 -1.315648e-01 -5.185304e-03 -2.313283e-02
4.080000e+10 5.405533e-03 -1.859199e-02 9.877870e-01 -1.313438e-01 9.878367e-01 -1.319929e-01 -5.239533e-03 -2.320423e-02
4.093333e+10 5.419617e-03 -1.865749e-02 9.877272e-01 -1.317696e-01 9.877767e-01 -1.324211e-01 -5.293941e-03 -2.327556e-02
4.106667e+10 5.433740e-03 -1.872301e-02 9.876672e-01 -1.321955e-01 9.877165e-01 -1.328491e-01 -5.348526e-03 -2.334681e-02
4.120000e+10 5.447904e-03 -1.878855e-02 9.876069e-01 -1.326213e-01 9.876562e-01 -1.332772e-01 -5.403289e-03 -2.341799e-02
4.133333e+10 5.462108e-03 -1.885411e-02 9.875465e-01 -1.330470e-01 9.875956e-01 -1.337053e-01 -5.458230e-03 -2.348910e-02
4.146667e+10 5.476352e-03 -1.891969e-02 9.874859e-01 -1.334728e-01 9.875348e-01 -1.341333e-01 -5.513348e-03 -2.356014e-02
4.160000e+10 5.490636e-03 -1.898530e-02 9.874250e-01 -1.338986e-01 9.874739e-01 -1.345613e-01 -5.568643e-03 -2.363110e-02
4.173333e+10 5.504961e-03 -1.905093e-02 9.873640e-01 -1.343244e-01 9.874127e-01 -1.349893e-01 -5.624114e-03 -2.370199e-02
4.186667e+10 5.519326e-03 -1.911658e-02 9.873027e-01 -1.347501e-01 9.873513e-01 -1.354172e-01 -5.679762e-03 -2.377281e-02
4.200000e+10 5.533732e-03 -1.918225e-02 9.872413e-01 -1.351758e-01 9.872897e-01 -1.358452e-01 -5.735587e-03 -2.384355e-02
4.213333e+10 5.548179e-03 -1.924795e-02 9.871796e-01 -1.356016e-01 9.872279e-01 -1.362731e-01 -5.791587e-03 -2.391422e-02
4.226667e+10 5.562667e-03 -1.931366e-02 9.871177e-01 -1.360273e-01 9.871658e-01 -1.367010e-01 -5.847763e-03 -2.398482e-02
4.240000e+10 5.577195e-03 -1.937941e-02 9.870557e-01 -1.364530e-01 9.871036e-01 -1.371289e-01 -5.904114e-03 -2.405534e-02
4.253333e+10 5.591765e-03 -1.944517e-02 9.869934e-01 -1.368786e-01 9.870412e-01 -1.375567e-01 -5.960641e-03 -2.412579e-02
4.266667e+10 5.606377e-03 -1.951097e-02 9.869309e-01 -1.373043e-01 9.869786e-01 -1.379846e-01 -6.017343e-03 -2.419617e-02
4.280000e+10 5.621029e-03 -1.957678e-02 9.868682e-01 -1.377300e-01 9.869157e-01 -1.384124e-01 -6.074219e-03 -2.426647e-02
4.293333e+10 5.635723e-03 -1.964262e-02 9.868053e-01 -1.381556e-01 9.868527e-01 -1.388401e-01 -6.131270e-03 -2.433670e-02
4.306667e+10 5.650459e-03 -1.970849e-02 9.867422e-01 -1.385812e-01 9.867895e-01 -1.392679e-01 -6.188496e-03 -2.440685e-02
4.320000e+10 5.665236e-03 -1.977438e-02 9.866789e-01 -1.390068e-01 9.867260e-01 -1.396956e-01 -6.245895e-03 -2.447693e-02
4.333333e+10 5.680055e-03 -1.984029e-02 9.866154e-01 -1.394324e-01 9.866624e-01 -1.401233e-01 -6.303468e-03 -2.454693e-02
4.346667e+10 5.694915e-03 -1.990623e-02 9.865517e-01 -1.398580e-01 9.865985e-01 -1.405510e-01 -6.361215e-03 -2.461686e-02
4.360000e+10 5.709818e-03 -1.997220e-02 9.864878e-01 -1.402836e-01 9.865344e-01 -1.409786e-01 -6.419135e-03 -2.468672e-02
4.373333e+10 5.724762e-03 -2.003819e-02 9.864237e-01 -1.407091e-01 9.864702e-01 -1.414062e-01 -6.477229e-03 -2.475650e-02
4.386667e+10 5.739748e-03 -2.010421e-02 9.863593e-01 -1.411346e-01 9.864057e-01 -1.418338e-01 -6.535495e-03 -2.482621e-02
4.400000e+10 5.754776e-03 -2.017025e-02 9.862948e-01 -1.415601e-01 9.863410e-01 -1.422614e-01 -6.593935e-03 -2.489584e-02
4.413333e+10 5.769847e-03 -2.023633e-02 9.862301e-01 -1.419856e-01 9.862762e-01 -1.426889e-01 -6.652546e-03 -2.496539e-02
4.426667e+10 5.784959e-03 -2.030243e-02 9.861651e-01 -1.424111e-01 9.862111e-01 -1.431164e-01 -6.711331e-03 -2.503488e-02
4.440000e+10 5.800114e-03 -2.036855e-02 9.861000e-01 -1.428366e-01 9.861458e-01 -1.435439e-01 -6.770287e-03 -2.510428e-02
4.453333e+10 5.815311e-03 -2.043471e-02 9.860346e-01 -1.432620e-01 9.860804e-01 -1.439714e-01 -6.829415e-03 -2.517361e-02
4.466667e+10 5.830550e-03 -2.050089e-02 9.859690e-01 -1.436874e-01 9.860147e-01 -1.443988e-01 -6.888715e-03 -2.524287e-02
4.480000e+10 5.845831e-03 -2.056710e-02 9.859033e-01 -1.441128e-01 9.859488e-01 -1.448262e-01 -6.948187e-03 -2.531205e-02
4.493333e+10 5.861155e-03 -2.063334e-02 9.858373e-01 -1.445382e-01 9.858827e-01 -1.452535e-01 -7.007830e-03 -2.538116e-02
4.506667e+10 5.876521e-03 -2.069961e-02 9.857711e-01 -1.449635e-01 9.858165e-01 -1.456809e-01 -7.067644e-03 -2.545019e-02
4.520000e+10 5.891929e-03 -2.076590e-02 9.857048e-01 -1.453889e-01 9.857500e-01 -1.461082e-01 -7.127629e-03 -2.551914e-02
4.533333e+10 5.907380e-03 -2.083223e-02 9.856382e-01 -1.458142e-01 9.856833e-01 -1.465354e-01 -7.187785e-03 -2.558802e-02
4.546667e+10 5.922873e-03 -2.089858e-02 9.855714e-01 -1.462395e-01 9.856164e-01 -1.469627e-01 -7.248111e-03 -2.565682e-02
4.560000e+10 5.938409e-03 -2.096497e-02 9.855044e-01 -1.466647e-01 9.855493e-01 -1.473899e-01 -7.308608e-03 -2.572555e-02
4.573333e+10 5.953987e-03 -2.103138e-02 9.854372e-01 -1.470900e-01 9.854821e-01 -1.478171e-01 -7.369275e-03 -2.579420e-02
4.586667e+10 5.969608e-03 -2.109783e-02 9.853698e-01 -1.475152e-01 9.854146e-01 -1.482442e-01 -7.430113e-03 -2.586278e-02
4.600000e+10 5.985270e-03 -2.116430e-02 9.853022e-01 -1.479404e-01 9.853469e-01 -1.486713e-01 -7.491120e-03 -2.593128e-02
4.613333e+10 6.000976e-03 -2.123081e-02 9.852344e-01 -1.483656e-01 9.852791e-01 -1.490984e-01 -7.552297e-03 -2.599970e-02
4.626667e+10 6.016724e-03 -2.129735e-02 9.851664e-01 -1.487908e-01 9.852110e-01 -1.495255e-01 -7.613643e-03 -2.606805e-02
4.640000e+10 6.032514e-03 -2.136391e-02 9.850982e-01 -1.492159e-01 9.851427e-01 -1.499525e-01 -7.675159e-03 -2.613632e-02
4.653333e+10 6.048346e-03 -2.143051e-02 9.850298e-01 -1.496410e-01 9.850743e-01 -1.503795e-01 -7.736844e-03 -2.620451e-02
4.666667e+10 6.064221e-03 -2.149714e-02 9.849611e-01 -1.500661e-01 9.850056e-01 -1.508065e-01 -7.798698e-03 -2.627263e-02
4.680000e+10 6.080139e-03 -2.156381e-02 9.848923e-01 -1.504912e-01 9.849368e-01 -1.512334e-01 -7.860721e-03 -2.634067e-02
4.693333e+10 6.096099e-03 -2.163050e-02 9.848233e-01 -1.509162e-01 9.848677e-01 -1.516603e-01 -7.922913e-03 -2.640864e-02
4.706667e+10 6.112101e-03 -2.169723e-02 9.847540e-01 -1.513412e-01 9.847985e-01 -1.520871e-01 -7.985274e-03 -2.647653e-02
4.720000e+10 6.128145e-03 -2.176399e-02 9.846846e-01 -1.517662e-01 9.847290e-01 -1.525140e-01 -8.047803e-03 -2.654434e-02
4.733333e+10 6.144232e-03 -2.183078e-02 9.846150e-01 -1.521912e-01 9.846594e-01 -1.529407e-01 -8.110500e-03 -2.661208e-02
4.746667e+10 6.160361e-03 -2.189760e-02 9.845451e-01 -1.526161e-01 9.845895e-01 -1.533675e-01 -8.173366e-03 -2.667974e-02
4.760000e+10 6.176532e-03 -2.196446e-02 9.844751e-01 -1.530410e-01 9.845195e-01 -1.537942e-01 -8.236399e-03 -2.674732e-02
4.773333e+10 6.192746e-03 -2.203135e-02 9.844049e-01 -1.534659e-01 9.844493e-01 -1.542209e-01 -8.299600e-03 -2.681483e-02
4.786667e+10 6.209001e-03 -2.209828e-02 9.843344e-01 -1.538908e-01 9.843789e-01 -1.546476e-01 -8.362970e-03 -2.688226e-02
4.800000e+10 6.225299e-03 -2.216524e-02 9.842638e-01 -1.543156e-01 9.843083e-01 -1.550742e-01 -8.426506e-03 -2.694961e-02
4.813333e+10 6.241638e-03 -2.223223e-02 9.841929e-01 -1.547404e-01 9.842375e-01 -1.555008e-01 -8.490211e-03 -2.701688e-02
4.826667e+10 6.258020e-03 -2.229926e-02 9.841219e-01 -1.551652e-01 9.841665e-01 -1.559274e-01 -8.554082e-03 -2.708408e-02
4.840000e+10 6.274444e-03 -2.236632e-02 9.840506e-01 -1.555899e-01 9.840953e-01 -1.563539e-01 -8.618121e-03 -2.715120e-02
4.853333e+10 6.290909e-03 -2.243342e-02 9.839792e-01 -1.560147e-01 9.840239e-01 -1.567804e-01 -8.682327e-03 -2.721824e-02
4.866667e+10 6.307416e-03 -2.250055e-02 9.839075e-01 -1.564394e-01 9.839523e-01 -1.572068e-01 -8.746700e-03 -2.728521e-02
4.880000e+10 6.323965e-03 -2.256772e-02 9.838357e-01 -1.568640e-01 9.838806e-01 -1.576333e-01 -8.811240e-03 -2.735210e-02
4.893333e+10 6.340556e-03 -2.263492e-02 9.837636e-01 -1.572887e-01 9.838086e-01 -1.580597e-01 -8.875946e-03 -2.741891e-02
4.906667e+10 6.357189e-03 -2.270216e-02 9.836914e-01 -1.577133e-01 9.837365e-01 -1.584860e-01 -8.940820e-03 -2.748565e-02
4.920000e+10 6.373863e-03 -2.276943e-02 9.836189e-01 -1.581379e-01 9.836642e-01 -1.589123e-01 -9.005859e-03 -2.755230e-02
4.933333e+10 6.390578e-03 -2.283674e-02 9.835463e-01 -1.585624e-01 9.835916e-01 -1.593386e-01 -9.071066e-03 -2.761888e-02
4.946667e+10 6.407335e-03 -2.290409e-02 9.834734e-01 -1.589869e-01 9.835189e-01 -1.597649e-01 -9.136438e-03 -2.768538e-02
4.960000e+10 6.424134e-03 -2.297147e-02 9.834003e-01 -1.594114e-01 9.834460e-01 -1.601911e-01 -9.201977e-03 -2.775181e-02
4.973333e+10 6.440973e-03 -2.303889e-02 9.833271e-01 -1.598359e-01 9.833729e-01 -1.606173e-01 -9.267681e-03 -2.781816e-02
4.986667e+10 6.457854e-03 -2.310635e-02 9.832536e-01 -1.602603e-01 9.832996e-01 -1.610434e-01 -9.333552e-03 -2.788442e-02
5.000000e+10 6.474776e-03 -2.317384e-02 9.831800e-01 -1.606847e-01 9.832261e-01 -1.614695e-01 -9.399589e-03 -2.795062e-02
5.013333e+10 6.491739e-03 -2.324137e-02 9.831061e-01 -1.611091e-01 9.831525e-01 -1.618956e-01 -9.465791e-03 -2.801673e-02
5.026667e+10 6.508744e-03 -2.330894e-02 9.830321e-01 -1.615334e-01 9.830786e-01 -1.623217e-01 -9.532159e-03 -2.808276e-02
5.040000e+10 6.525789e-03 -2.337655e-02 9.829578e-01 -1.619577e-01 9.830046e-01 -1.627477e-01 -9.598693e-03 -2.814872e-02
5.053333e+10 6.542874e-03 -2.344419e-02 9.828834e-01 -1.623820e-01 9.829304e-01 -1.631737e-01 -9.665392e-03 -2.821460e-02
5.066667e+10 6.560001e-03 -2.351187e-02 9.828088e-01 -1.628063e-01 9.828559e-01 -1.635996e-01 -9.732257e-03 -2.828040e-02
5.080000e+10 6.577168e-03 -2.357959e-02 9.827339e-01 -1.632305e-01 9.827813e-01 -1.640255e-01 -9.799287e-03 -2.834612e-02
5.093333e+10 6.594375e-03 -2.364735e-02 9.826589e-01 -1.636547e-01 9.827066e-01 -1.644514e-01 -9.866483e-03 -2.841177e-02
5.106667e+10 6.611623e-03 -2.371515e-02 9.825836e-01 -1.640788e-01 9.826316e-01 -1.648772e-01 -9.933843e-03 -2.847733e-02
5.120000e+10 6.628912e-03 -2.378298e-02 9.825082e-01 -1.645030e-01 9.825564e-01 -1.653030e-01 -1.000137e-02 -2.854282e-02
5.133333e+10 6.646240e-03 -2.385086e-02 9.824326e-01 -1.649270e-01 9.824811e-01 -1.657288e-01 -1.006906e-02 -2.860823e-02
5.146667e+10 6.663609e-03 -2.391877e-02 9.823568e-01 -1.653511e-01 9.824055e-01 -1.661546e-01 -1.013691e-02 -2.867356e-02
5.160000e+10 6.681018e-03 -2.398672e-02 9.822807e-01 -1.657751e-01 9.823298e-01 -1.665803e-01 -1.020494e-02 -2.873881e-02
5.173333e+10 6.698467e-03 -2.405471e-02 9.822045e-01 -1.661991e-01 9.822539e-01 -1.670059e-01 -1.027312e-02 -2.880398e-02
5.186667e+10 6.715955e-03 -2.412275e-02 9.821281e-01 -1.666231e-01 9.821778e-01 -1.674316e-01 -1.034147e-02 -2.886908e-02
5.200000e+10 6.733484e-03 -2.419082e-02 9.820515e-01 -1.670470e-01 9.821015e-01 -1.678572e-01 -1.040999e-02 -2.893409e-02
5.213333e+10 6.751052e-03 -2.425893e-02 9.819747e-01 -1.674709e-01 9.820251e-01 -1.682827e-01 -1.047866e-02 -2.899903e-02
5.226667e+10 6.768659e-03 -2.432708e-02 9.818977e-01 -1.678948e-01 9.819484e-01 -1.687083e-01 -1.054751e-02 -2.906389e-02
5.240000e+10 6.786306e-03 -2.439527e-02 9.818205e-01 -1.683186e-01 9.818716e-01 -1.691338e-01 -1.061652e-02 -2.912867e-02
5.253333e+10 6.803992e-03 -2.446350e-02 9.817431e-01 -1.687424e-01 9.817946e-01 -1.695593e-01 -1.068569e-02 -2.919337e-02
5.266667e+10 6.821717e-03 -2.453177e-02 9.816655e-01 -1.691662e-01 9.817173e-01 -1.699847e-01 -1.075503e-02 -2.925799e-02
5.280000e+10 6.839482e-03 -2.460009e-02 9.815877e-01 -1.695899e-01 9.816400e-01 -1.704101e-01 -1.082453e-02 -2.932253e-02
5.293333e+10 6.857285e-03 -2.466844e-02 9.815097e-01 -1.700136e-01 9.815624e-01 -1.708355e-01 -1.089419e-02 -2.938699e-02
5.306667e+10 6.875127e-03 -2.473684e-02 9.814316e-01 -1.704373e-01 9.814846e-01 -1.712608e-01 -1.096402e-02 -2.945137e-02
5.320000e+10 6.893008e-03 -2.480527e-02 9.813532e-01 -1.708609e-01 9.814067e-01 -1.716861e-01 -1.103402e-02 -2.951568e-02
5.333333e+10 6.910928e-03 -2.487375e-02 9.812746e-01 -1.712845e-01 9.813286e-01 -1.721114e-01 -1.110417e-02 -2.957990e-02
5.346667e+10 6.928886e-03 -2.494227e-02 9.811959e-01 -1.717081e-01 9.812503e-01 -1.725366e-01 -1.117450e-02 -2.964405e-02
5.360000e+10 6.946883e-03 -2.501083e-02 9.811169e-01 -1.721316e-01 9.811718e-01 -1.729618e-01 -1.124498e-02 -2.970811e-02
5.373333e+10 6.964917e-03 -2.507943e-02 9.810378e-01 -1.725551e-01 9.810931e-01 -1.733870e-01 -1.131563e-02 -2.977209e-02
5.386667e+10 6.982990e-03 -2.514807e-02 9.809585e-01 -1.729785e-01 9.810143e-01 -1.738122e-01 -1.138645e-02 -2.983600e-02
5.400000e+10 7.001101e-03 -2.521676e-02 9.808789e-01 -1.734020e-01 9.809352e-01 -1.742373e-01 -1.145742e-02 -2.989982e-02
5.413333e+10 7.019250e-03 -2.528549e-02 9.807992e-01 -1.738254e-01 9.808560e-01 -1.746623e-01 -1.152856e-02 -2.996357e-02
5.426667e+10 7.037437e-03 -2.535426e-02 9.807193e-01 -1.742487e-01 9.807766e-01 -1.750874e-01 -1.159987e-02 -3.002723e-02
5.440000e+10 7.055661e-03 -2.542307e-02 9.806392e-01 -1.746721e-01 9.806970e-01 -1.755124e-01 -1.167134e-02 -3.009082e-02
5.453333e+10 7.073923e-03 -2.549192e-02 9.805589e-01 -1.750953e-01 9.806173e-01 -1.759374e-01 -1.174297e-02 -3.015432e-02
5.466667e+10 7.092222e-03 -2.556082e-02 9.804784e-01 -1.755186e-01 9.805373e-01 -1.763623e-01 -1.181477e-02 -3.021774e-02
5.480000e+10 7.110559e-03 -2.562976e-02 9.803977e-01 -1.759418e-01 9.804572e-01 -1.767873e-01 -1.188673e-02 -3.028109e-02
5.493333e+10 7.128932e-03 -2.569874e-02 9.803169e-01 -1.763650e-01 9.803769e-01 -1.772121e-01 -1.195885e-02 -3.034435e-02
5.506667e+10 7.147343e-03 -2.576777e-02 9.802358e-01 -1.767882e-01 9.802964e-01 -1.776370e-01 -1.203114e-02 -3.040753e-02
5.520000e+10 7.165791e-03 -2.583684e-02 9.801545e-01 -1.772113e-01 9.802157e-01 -1.780618e-01 -1.210359e-02 -3.047063e-02
5.533333e+10 7.184276e-03 -2.590595e-02 9.800731e-01 -1.776344e-01 9.801349e-01 -1.784866e-01 -1.217620e-02 -3.053365e-02
5.546667e+10 7.202797e-03 -2.597510e-02 9.799915e-01 -1.780574e-01 9.800538e-01 -1.789114e-01 -1.224898e-02 -3.059659e-02
5.560000e+10 7.221355e-03 -2.604430e-02 9.799096e-01 -1.784804e-01 9.799726e-01 -1.793361e-01 -1.232192e-02 -3.065945e-02
5.573333e+10 7.239949e-03 -2.611354e-02 9.798276e-01 -1.789034e-01 9.798912e-01 -1.797608e-01 -1.239503e-02 -3.072223e-02
5.586667e+10 7.258579e-03 -2.618283e-02 9.797454e-01 -1.793264e-01 9.798096e-01 -1.801855e-01 -1.246829e-02 -3.078492e-02
5.600000e+10 7.277246e-03 -2.625216e-02 9.796630e-01 -1.797493e-01 9.797279e-01 -1.806101e-01 -1.254172e-02 -3.084754e-02
5.613333e+10 7.295949e-03 -2.632153e-02 9.795804e-01 -1.801721e-01 9.796459e-01 -1.810347e-01 -1.261532e-02 -3.091007e-02
5.626667e+10 7.314687e-03 -2.639094e-02 9.794976e-01 -1.805950e-01 9.795638e-01 -1.814593e-01 -1.268908e-02 -3.097252e-02
5.640000e+10 7.333462e-03 -2.646040e-02 9.794147e-01 -1.810178e-01 9.794815e-01 -1.818839e-01 -1.276300e-02 -3.103489e-02
5.653333e+10 7.352272e-03 -2.652991e-02 9.793315e-01 -1.814406e-01 9.793990e-01 -1.823084e-01 -1.283708e-02 -3.109718e-02
5.666667e+10 7.371118e-03 -2.659946e-02 9.792482e-01 -1.818633e-01 9.793164e-01 -1.827329e-01 -1.291133e-02 -3.115938e-02
5.680000e+10 7.389999e-03 -2.666905e-02 9.791646e-01 -1.822860e-01 9.792335e-01 -1.831574e-01 -1.298574e-02 -3.122150e-02
5.693333e+10 7.408916e-03 -2.673869e-02 9.790809e-01 -1.827087e-01 9.791505e-01 -1.835818e-01 -1.306032e-02 -3.128355e-02
5.706667e+10 7.427867e-03 -2.680837e-02 9.789970e-01 -1.831313e-01 9.790673e-01 -1.840062e-01 -1.313505e-02 -3.134551e-02
5.720000e+10 7.446854e-03 -2.687809e-02 9.789129e-01 -1.835539e-01 9.789839e-01 -1.844306e-01 -1.320995e-02 -3.140738e-02
5.733333e+10 7.465876e-03 -2.694786e-02 9.788286e-01 -1.839764e-01 9.789004e-01 -1.848549e-01 -1.328502e-02 -3.146918e-02
5.746667e+10 7.484932e-03 -2.701768e-02 9.787441e-01 -1.843990e-01 9.788166e-01 -1.852792e-01 -1.336024e-02 -3.153089e-02
5.760000e+10 7.504024e-03 -2.708754e-02 9.786594e-01 -1.848215e-01 9.787327e-01 -1.857035e-01 -1.343563e-02 -3.159252e-02
5.773333e+10 7.523149e-03 -2.715744e-02 9.785746e-01 -1.852439e-01 9.786486e-01 -1.861278e-01 -1.351119e-02 -3.165406e-02
5.786667e+10 7.542309e-03 -2.722739e-02 9.784895e-01 -1.856663e-01 9.785643e-01 -1.865520e-01 -1.358690e-02 -3.171553e-02
5.800000e+10 7.561504e-03 -2.729739e-02 9.784043e-01 -1.860887e-01 9.784798e-01 -1.869762e-01 -1.366278e-02 -3.177691e-02
5.813333e+10 7.580733e-03 -2.736743e-02 9.783189e-01 -1.865111e-01 9.783952e-01 -1.874004e-01 -1.373882e-02 -3.183820e-02
5.826667e+10 7.599996e-03 -2.743751e-02 9.782333e-01 -1.869334e-01 9.783103e-01 -1.878246e-01 -1.381503e-02 -3.189942e-02
5.840000e+10 7.619292e-03 -2.750764e-02 9.781475e-01 -1.873557e-01 9.782253e-01 -1.882487e-01 -1.389140e-02 -3.196055e-02
5.853333e+10 7.638623e-03 -2.757781e-02 9.780615e-01 -1.877779e-01 9.781401e-01 -1.886728e-01 -1.396793e-02 -3.202159e-02
5.866667e+10 7.657987e-03 -2.764803e-02 9.779753e-01 -1.882001e-01 9.780548e-01 -1.890969e-01 -1.404463e-02 -3.208255e-02
5.880000e+10 7.677385e-03 -2.771830e-02 9.778890e-01 -1.886223e-01 9.779692e-01 -1.895209e-01 -1.412148e-02 -3.214343e-02
5.893333e+10 7.696817e-03 -2.778861e-02 9.778024e-01 -1.890445e-01 9.778835e-01 -1.899449e-01 -1.419850e-02 -3.220423e-02
5.906667e+10 7.716281e-03 -2.785897e-02 9.777157e-01 -1.894666e-01 9.777976e-01 -1.903689e-01 -1.427569e-02 -3.226494e-02
5.920000e+10 7.735779e-03 -2.792937e-02 9.776288e-01 -1.898887e-01 9.777115e-01 -1.907929e-01 -1.435303e-02 -3.232556e-02
5.933333e+10 7.755310e-03 -2.799981e-02 9.775417e-01 -1.903107e-01 9.776252e-01 -1.912168e-01 -1.443054e-02 -3.238611e-02
5.946667e+10 7.774875e-03 -2.807031e-02 9.774544e-01 -1.907327e-01 9.775387e-01 -1.916407e-01 -1.450822e-02 -3.244656e-02
5.960000e+10 7.794472e-03 -2.814085e-02 9.773669e-01 -1.911547e-01 9.774521e-01 -1.920646e-01 -1.458605e-02 -3.250693e-02
5.973333e+10 7.814101e-03 -2.821143e-02 9.772792e-01 -1.915766e-01 9.773653e-01 -1.924884e-01 -1.466405e-02 -3.256722e-02
5.986667e+10 7.833764e-03 -2.828206e-02 9.771914e-01 -1.919985e-01 9.772783e-01 -1.929123e-01 -1.474221e-02 -3.262742e-02
6.000000e+10 7.853459e-03 -2.835273e-02 9.771033e-01 -1.924204e-01 9.771911e-01 -1.933361e-01 -1.482054e-02 -3.268754e-02
6.013333e+10 7.873186e-03 -2.842346e-02 9.770151e-01 -1.928422e-01 9.771038e-01 -1.937598e-01 -1.489903e-02 -3.274757e-02
6.026667e+10 7.892946e-03 -2.849422e-02 9.769267e-01 -1.932640e-01 9.770162e-01 -1.941836e-01 -1.497768e-02 -3.280752e-02
6.040000e+10 7.912738e-03 -2.856504e-02 9.768381e-01 -1.936858e-01 9.769285e-01 -1.946073e-01 -1.505649e-02 -3.286738e-02
6.053333e+10 7.932562e-03 -2.863590e-02 9.767493e-01 -1.941075e-01 9.768406e-01 -1.950310e-01 -1.513547e-02 -3.292715e-02
6.066667e+10 7.952418e-03 -2.870680e-02 9.766603e-01 -1.945292e-01 9.767525e-01 -1.954547e-01 -1.521461e-02 -3.298684e-02
6.080000e+10 7.972306e-03 -2.877775e-02 9.765712e-01 -1.949509e-01 9.766642e-01 -1.958783e-01 -1.529391e-02 -3.304645e-02
6.093333e+10 7.992226e-03 -2.884875e-02 9.764818e-01 -1.953725e-01 9.765758e-01 -1.963020e-01 -1.537338e-02 -3.310596e-02
6.106667e+10 8.012177e-03 -2.891980e-02 9.763923e-01 -1.957941e-01 9.764871e-01 -1.967256e-01 -1.545301e-02 -3.316539e-02
6.120000e+10 8.032160e-03 -2.899089e-02 9.763026e-01 -1.962157e-01 9.763983e-01 -1.971491e-01 -1.553280e-02 -3.322473e-02
6.133333e+10 8.052174e-03 -2.906202e-02 9.762127e-01 -1.966372e-01 9.763093e-01 -1.975727e-01 -1.561275e-02 -3.328399e-02
6.146667e+10 8.072220e-03 -2.913321e-02 9.761226e-01 -1.970587e-01 9.762201e-01 -1.979962e-01 -1.569287e-02 -3.334316e-02
6.160000e+10 8.092297e-03 -2.920443e-02 9.760323e-01 -1.974802e-01 9.761308e-01 -1.984197e-01 -1.577315e-02 -3.340224e-02
6.173333e+10 8.112405e-03 -2.927571e-02 9.759419e-01 -1.979016e-01 9.760412e-01 -1.988432e-01 -1.585359e-02 -3.346124e-02
6.186667e+10 8.132544e-03 -2.934703e-02 9.758512e-01 -1.983230e-01 9.759515e-01 -1.992666e-01 -1.593420e-02 -3.352015e-02
6.200000e+10 8.152714e-03 -2.941840e-02 9.757604e-01 -1.987443e-01 9.758616e-01 -1.996900e-01 -1.601497e-02 -3.357897e-02
6.213333e+10 8.172915e-03 -2.948981e-02 9.756694e-01 -1.991657e-01 9.757715e-01 -2.001134e-01 -1.609590e-02 -3.363770e-02
6.226667e+10 8.193146e-03 -2.956128e-02 9.755782e-01 -1.995870e-01 9.756812e-01 -2.005368e-01 -1.617699e-02 -3.369634e-02
6.240000e+10 8.213408e-03 -2.963278e-02 9.754868e-01 -2.000082e-01 9.755907e-01 -2.009601e-01 -1.625825e-02 -3.375490e-02
6.253333e+10 8.233701e-03 -2.970434e-02 9.753952e-01 -2.004294e-01 9.755001e-01 -2.013835e-01 -1.633967e-02 -3.381337e-02
6.266667e+10 8.254024e-03 -2.977594e-02 9.753035e-01 -2.008506e-01 9.754093e-01 -2.018068e-01 -1.642126e-02 -3.387175e-02
6.280000e+10 8.274378e-03 -2.984759e-02 9.752115e-01 -2.012718e-01 9.753183e-01 -2.022300e-01 -1.650300e-02 -3.393004e-02
6.293333e+10 8.294761e-03 -2.991928e-02 9.751194e-01 -2.016929e-01 9.752271e-01 -2.026533e-01 -1.658491e-02 -3.398824e-02
6.306667e+10 8.315175e-03 -2.999102e-02 9.750271e-01 -2.021140e-01 9.751357e-01 -2.030765e-01 -1.666698e-02 -3.404635e-02
6.320000e+10 8.335619e-03 -3.006281e-02 9.749346e-01 -2.025351e-01 9.750441e-01 -2.034997e-01 -1.674922e-02 -3.410437e-02
6.333333e+10 8.356093e-03 -3.013464e-02 9.748419e-01 -2.029561e-01 9.749524e-01 -2.039229e-01 -1.683161e-02 -3.416231e-02
6.346667e+10 8.376597e-03 -3.020652e-02 9.747490e-01 -2.033771e-01 9.748604e-01 -2.043461e-01 -1.691417e-02 -3.422015e-02
6.360000e+10 8.397131e-03 -3.027845e-02 9.746560e-01 -2.037981e-01 9.747683e-01 -2.047692e-01 -1.699690e-02 -3.427791e-02
6.373333e+10 8.417694e-03 -3.035043e-02 9.745627e-01 -2.042190e-01 9.746760e-01 -2.051923e-01 -1.707978e-02 -3.433557e-02
6.386667e+10 8.438287e-03 -3.042245e-02 9.744693e-01 -2.046399e-01 9.745835e-01 -2.056154e-01 -1.716283e-02 -3.439315e-02
6.400000e+10 8.458909e-03 -3.049452e-02 9.743757e-01 -2.050607e-01 9.744908e-01 -2.060384e-01 -1.724604e-02 -3.445063e-02
6.413333e+10 8.479561e-03 -3.056663e-02 9.742819e-01 -2.054816e-01 9.743980e-01 -2.064615e-01 -1.732942e-02 -3.450802e-02
6.426667e+10 8.500242e-03 -3.063879e-02 9.741879e-01 -2.059024e-01 9.743049e-01 -2.068845e-01 -1.741295e-02 -3.456533e-02
6.440000e+10 8.520953e-03 -3.071100e-02 9.740938e-01 -2.063231e-01 9.742117e-01 -2.073075e-01 -1.749665e-02 -3.462254e-02
6.453333e+10 8.541692e-03 -3.078326e-02 9.739994e-01 -2.067439e-01 9.741183e-01 -2.077304e-01 -1.758052e-02 -3.467966e-02
6.466667e+10 8.562461e-03 -3.085556e-02 9.739049e-01 -2.071646e-01 9.740246e-01 -2.081534e-01 -1.766454e-02 -3.473669e-02
6.480000e+10 8.583259e-03 -3.092791e-02 9.738101e-01 -2.075852e-01 9.739308e-01 -2.085763e-01 -1.774873e-02 -3.479363e-02
6.493333e+10 8.604085e-03 -3.100031e-02 9.737152e-01 -2.080059e-01 9.738369e-01 -2.089992e-01 -1.783308e-02 -3.485047e-02
6.506667e+10 8.624941e-03 -3.107275e-02 9.736201e-01 -2.084265e-01 9.737427e-01 -2.094220e-01 -1.791759e-02 -3.490723e-02
6.520000e+10 8.645825e-03 -3.114524e-02 9.735249e-01 -2.088471e-01 9.736483e-01 -2.098449e-01 -1.800227e-02 -3.496389e-02
6.533333e+10 8.666738e-03 -3.121778e-02 9.734294e-01 -2.092676e-01 9.735538e-01 -2.102677e-01 -1.808710e-02 -3.502046e-02
6.546667e+10 8.687680e-03 -3.129037e-02 9.733337e-01 -2.096881e-01 9.734591e-01 -2.106905e-01 -1.817210e-02 -3.507693e-02
6.560000e+10 8.708650e-03 -3.136300e-02 9.732379e-01 -2.101086e-01 9.733642e-01 -2.111133e-01 -1.825727e-02 -3.513332e-02
6.573333e+10 8.729649e-03 -3.143568e-02 9.731419e-01 -2.105290e-01 9.732690e-01 -2.115360e-01 -1.834259e-02 -3.518961e-02
6.586667e+10 8.750676e-03 -3.150840e-02 9.730457e-01 -2.109494e-01 9.731737e-01 -2.119587e-01 -1.842808e-02 -3.524581e-02
6.600000e+10 8.771731e-03 -3.158118e-02 9.729493e-01 -2.113698e-01 9.730783e-01 -2.123814e-01 -1.851373e-02 -3.530191e-02
6.613333e+10 8.792815e-03 -3.165400e-02 9.728527e-01 -2.117902e-01 9.729826e-01 -2.128041e-01 -1.859954e-02 -3.535792e-02
6.626667e+10 8.813927e-03 -3.172687e-02 9.727559e-01 -2.122105e-01 9.728867e-01 -2.132267e-01 -1.868552e-02 -3.541384e-02
6.640000e+10 8.835067e-03 -3.179978e-02 9.726590e-01 -2.126308e-01 9.727907e-01 -2.136494e-01 -1.877166e-02 -3.546966e-02
6.653333e+10 8.856235e-03 -3.187274e-02 9.725618e-01 -2.130510e-01 9.726944e-01 -2.140720e-01 -1.885796e-02 -3.552539e-02
6.666667e+10 8.877432e-03 -3.194575e-02 9.724645e-01 -2.134712e-01 9.725980e-01 -2.144945e-01 -1.894442e-02 -3.558102e-02
6.680000e+10 8.898656e-03 -3.201881e-02 9.723670e-01 -2.138914e-01 9.725014e-01 -2.149171e-01 -1.903104e-02 -3.563656e-02
6.693333e+10 8.919908e-03 -3.209191e-02 9.722693e-01 -2.143116e-01 9.724046e-01 -2.153396e-01 -1.911783e-02 -3.569201e-02
6.706667e+10 8.941187e-03 -3.216507e-02 9.721714e-01 -2.147317e-01 9.723076e-01 -2.157621e-01 -1.920478e-02 -3.574736e-02
6.720000e+10 8.962495e-03 -3.223826e-02 9.720733e-01 -2.151518e-01 9.722104e-01 -2.161846e-01 -1.929189e-02 -3.580261e-02
6.733333e+10 8.983830e-03 -3.231151e-02 9.719751e-01 -2.155719e-01 9.721130e-01 -2.166070e-01 -1.937916e-02 -3.585777e-02
6.746667e+10 9.005193e-03 -3.238480e-02 9.718766e-01 -2.159919e-01 9.720155e-01 -2.170295e-01 -1.946660e-02 -3.591283e-02
6.760000e+10 9.026583e-03 -3.245814e-02 9.717780e-01 -2.164119e-01 9.719177e-01 -2.174519e-01 -1.955420e-02 -3.596780e-02
6.773333e+10 9.048001e-03 -3.253153e-02 9.716792e-01 -2.168319e-01 9.718197e-01 -2.178742e-01 -1.964196e-02 -3.602267e-02
6.786667e+10 9.069447e-03 -3.260497e-02 9.715802e-01 -2.172518e-01 9.717216e-01 -2.182966e-01 -1.972988e-02 -3.607744e-02
6.800000e+10 9.090919e-03 -3.267845e-02 9.714810e-01 -2.176717e-01 9.716233e-01 -2.187189e-01 -1.981796e-02 -3.613211e-02
6.813333e+10 9.112419e-03 -3.275198e-02 9.713816e-01 -2.180916e-01 9.715247e-01 -2.191412e-01 -1.990621e-02 -3.618669e-02
6.826667e+10 9.133947e-03 -3.282556e-02 9.712820e-01 -2.185114e-01 9.714260e-01 -2.195635e-01 -1.999462e-02 -3.624118e-02
6.840000e+10 9.155501e-03 -3.289918e-02 9.711823e-01 -2.189312e-01 9.713271e-01 -2.199857e-01 -2.008319e-02 -3.629556e-02
6.853333e+10 9.177083e-03 -3.297286e-02 9.710823e-01 -2.193510e-01 9.712280e-01 -2.204079e-01 -2.017192e-02 -3.634985e-02
6.866667e+10 9.198692e-03 -3.304658e-02 9.709822e-01 -2.197708e-01 9.711287e-01 -2.208301e-01 -2.026081e-02 -3.640404e-02
6.880000e+10 9.220328e-03 -3.312034e-02 9.708819e-01 -2.201905e-01 9.710292e-01 -2.212523e-01 -2.034986e-02 -3.645813e-02
6.893333e+10 9.241991e-03 -3.319416e-02 9.707814e-01 -2.206102e-01 9.709295e-01 -2.216745e-01 -2.043908e-02 -3.651212e-02
6.906667e+10 9.263681e-03 -3.326802e-02 9.706807e-01 -2.210298e-01 9.708297e-01 -2.220966e-01 -2.052846e-02 -3.656602e-02
6.920000e+10 9.285398e-03 -3.334193e-02 9.705798e-01 -2.214495e-01 9.707296e-01 -2.225187e-01 -2.061800e-02 -3.661981e-02
6.933333e+10 9.307141e-03 -3.341589e-02 9.704787e-01 -2.218690e-01 9.706293e-01 -2.229407e-01 -2.070770e-02 -3.667351e-02
6.946667e+10 9.328912e-03 -3.348990e-02 9.703775e-01 -2.222886e-01 9.705289e-01 -2.233628e-01 -2.079756e-02 -3.672711e-02
6.960000e+10 9.350709e-03 -3.356395e-02 9.702760e-01 -2.227081e-01 9.704282e-01 -2.237848e-01 -2.088759e-02 -3.678060e-02
6.973333e+10 9.372533e-03 -3.363805e-02 9.701744e-01 -2.231276e-01 9.703274e-01 -2.242067e-01 -2.097777e-02 -3.683400e-02
6.986667e+10 9.394384e-03 -3.371220e-02 9.700726e-01 -2.235471e-01 9.702263e-01 -2.246287e-01 -2.106812e-02 -3.688730e-02
7.000000e+10 9.416262e-03 -3.378640e-02 9.699706e-01 -2.239665e-01 9.701251e-01 -2.250506e-01 -2.115863e-02 -3.694050e-02
7.013333e+10 9.438166e-03 -3.386064e-02 9.698684e-01 -2.243859e-01 9.700237e-01 -2.254725e-01 -2.124930e-02 -3.699359e-02
7.026667e+10 9.460096e-03 -3.393493e-02 9.697660e-01 -2.248053e-01 9.699221e-01 -2.258944e-01 -2.134013e-02 -3.704659e-02
7.040000e+10 9.482053e-03 -3.400927e-02 9.696634e-01 -2.252247e-01 9.698202e-01 -2.263162e-01 -2.143112e-02 -3.709949e-02
7.053333e+10 9.504037e-03 -3.408366e-02 9.695606e-01 -2.256440e-01 9.697182e-01 -2.267380e-01 -2.152227e-02 -3.715228e-02
7.066667e+10 9.526047e-03 -3.415809e-02 9.694577e-01 -2.260632e-01 9.696160e-01 -2.271598e-01 -2.161358e-02 -3.720497e-02
7.080000e+10 9.548083e-03 -3.423258e-02 9.693545e-01 -2.264825e-01 9.695136e-01 -2.275816e-01 -2.170506e-02 -3.725756e-02
7.093333e+10 9.570146e-03 -3.430711e-02 9.692512e-01 -2.269017e-01 9.694110e-01 -2.280033e-01 -2.179669e-02 -3.731005e-02
7.106667e+10 9.592235e-03 -3.438169e-02 9.691477e-01 -2.273209e-01 9.693082e-01 -2.284250e-01 -2.188849e-02 -3.736244e-02
7.120000e+10 9.614351e-03 -3.445632e-02 9.690439e-01 -2.277400e-01 9.692052e-01 -2.288467e-01 -2.198044e-02 -3.741472e-02
7.133333e+10 9.636492e-03 -3.453099e-02 9.689400e-01 -2.281592e-01 9.691021e-01 -2.292683e-01 -2.207256e-02 -3.746691e-02
7.146667e+10 9.658660e-03 -3.460571e-02 9.688359e-01 -2.285783e-01 9.689987e-01 -2.296899e-01 -2.216484e-02 -3.751899e-02
7.160000e+10 9.680854e-03 -3.468049e-02 9.687316e-01 -2.289973e-01 9.688951e-01 -2.301115e-01 -2.225728e-02 -3.757096e-02
7.173333e+10 9.703074e-03 -3.475531e-02 9.686272e-01 -2.294163e-01 9.687913e-01 -2.305331e-01 -2.234988e-02 -3.762283e-02
7.186667e+10 9.725320e-03 -3.483017e-02 9.685225e-01 -2.298353e-01 9.686873e-01 -2.309546e-01 -2.244263e-02 -3.767460e-02
7.200000e+10 9.747593e-03 -3.490509e-02 9.684176e-01 -2.302543e-01 9.685832e-01 -2.313761e-01 -2.253555e-02 -3.772627e-02
7.213333e+10 9.769891e-03 -3.498005e-02 9.683126e-01 -2.306732e-01 9.684788e-01 -2.317976e-01 -2.262863e-02 -3.777783e-02
7.226667e+10 9.792215e-03 -3.505507e-02 9.682073e-01 -2.310921e-01 9.683742e-01 -2.322190e-01 -2.272187e-02 -3.782929e-02
7.240000e+10 9.814566e-03 -3.513013e-02 9.681019e-01 -2.315110e-01 9.682695e-01 -2.326404e-01 -2.281527e-02 -3.788064e-02
7.253333e+10 9.836942e-03 -3.520523e-02 9.679963e-01 -2.319298e-01 9.681645e-01 -2.330618e-01 -2.290883e-02 -3.793189e-02
7.266667e+10 9.859344e-03 -3.528039e-02 9.678905e-01 -2.323486e-01 9.680594e-01 -2.334831e-01 -2.300255e-02 -3.798303e-02
7.280000e+10 9.881772e-03 -3.535560e-02 9.677844e-01 -2.327674e-01 9.679540e-01 -2.339044e-01 -2.309643e-02 -3.803406e-02
7.293333e+10 9.904226e-03 -3.543085e-02 9.676782e-01 -2.331861e-01 9.678485e-01 -2.343257e-01 -2.319047e-02 -3.808500e-02
7.306667e+10 9.926706e-03 -3.550615e-02 9.675719e-01 -2.336048e-01 9.677427e-01 -2.347469e-01 -2.328466e-02 -3.813582e-02
7.320000e+10 9.949211e-03 -3.558150e-02 9.674653e-01 -2.340235e-01 9.676368e-01 -2.351681e-01 -2.337902e-02 -3.818654e-02
7.333333e+10 9.971743e-03 -3.565690e-02 9.673585e-01 -2.344422e-01 9.675306e-01 -2.355893e-01 -2.347354e-02 -3.823715e-02
7.346667e+10 9.994300e-03 -3.573235e-02 9.672515e-01 -2.348608e-01 9.674243e-01 -2.360104e-01 -2.356822e-02 -3.828766e-02
7.360000e+10 1.001688e-02 -3.580785e-02 9.671444e-01 -2.352793e-01 9.673177e-01 -2.364315e-01 -2.366305e-02 -3.833806e-02
7.373333e+10 1.003949e-02 -3.588339e-02 9.670370e-01 -2.356979e-01 9.672110e-01 -2.368526e-01 -2.375805e-02 -3.838835e-02
7.386667e+10 1.006212e-02 -3.595899e-02 9.669295e-01 -2.361164e-01 9.671040e-01 -2.372737e-01 -2.385320e-02 -3.843854e-02
7.400000e+10 1.008478e-02 -3.603463e-02 9.668217e-01 -2.365349e-01 9.669969e-01 -2.376947e-01 -2.394851e-02 -3.848862e-02
7.413333e+10 1.010747e-02 -3.611032e-02 9.667138e-01 -2.369533e-01 9.668896e-01 -2.381157e-01 -2.404398e-02 -3.853859e-02
7.426667e+10 1.013018e-02 -3.618606e-02 9.666057e-01 -2.373717e-01 9.667820e-01 -2.385366e-01 -2.413961e-02 -3.858845e-02
7.440000e+10 1.015292e-02 -3.626185e-02 9.664973e-01 -2.377901e-01 9.666743e-01 -2.389575e-01 -2.423540e-02 -3.863820e-02
7.453333e+10 1.017568e-02 -3.633769e-02 9.663888e-01 -2.382085e-01 9.665663e-01 -2.393784e-01 -2.433135e-02 -3.868785e-02
7.466667e+10 1.019847e-02 -3.641357e-02 9.662801e-01 -2.386268e-01 9.664582e-01 -2.397992e-01 -2.442746e-02 -3.873738e-02
7.480000e+10 1.022128e-02 -3.648951e-02 9.661712e-01 -2.390451e-01 9.663499e-01 -2.402200e-01 -2.452372e-02 -3.878681e-02
7.493333e+10 1.024412e-02 -3.656549e-02 9.660621e-01 -2.394633e-01 9.662413e-01 -2.406408e-01 -2.462014e-02 -3.883613e-02
7.506667e+10 1.026698e-02 -3.664153e-02 9.659528e-01 -2.398815e-01 9.661326e-01 -2.410615e-01 -2.471672e-02 -3.888534e-02
7.520000e+10 1.028987e-02 -3.671761e-02 9.658433e-01 -2.402997e-01 9.660237e-01 -2.414822e-01 -2.481346e-02 -3.893444e-02
7.533333e+10 1.031278e-02 -3.679374e-02 9.657337e-01 -2.407178e-01 9.659145e-01 -2.419029e-01 -2.491036e-02 -3.898343e-02
7.546667e+10 1.033572e-02 -3.686993e-02 9.656238e-01 -2.411360e-01 9.658052e-01 -2.423235e-01 -2.500741e-02 -3.903231e-02
7.560000e+10 1.035869e-02 -3.694616e-02 9.655137e-01 -2.415540e-01 9.656956e-01 -2.427441e-01 -2.510463e-02 -3.908107e-02
7.573333e+10 1.038168e-02 -3.702244e-02 9.654035e-01 -2.419721e-01 9.655859e-01 -2.431646e-01 -2.520200e-02 -3.912973e-02
7.586667e+10 1.040469e-02 -3.709877e-02 9.652930e-01 -2.423901e-01 9.654760e-01 -2.435851e-01 -2.529952e-02 -3.917828e-02
7.600000e+10 1.042773e-02 -3.717515e-02 9.651823e-01 -2.428081e-01 9.653658e-01 -2.440056e-01 -2.539721e-02 -3.922671e-02
7.613333e+10 1.045080e-02 -3.725158e-02 9.650715e-01 -2.432260e-01 9.652555e-01 -2.444260e-01 -2.549505e-02 -3.927504e-02
7.626667e+10 1.047389e-02 -3.732806e-02 9.649604e-01 -2.436439e-01 9.651450e-01 -2.448464e-01 -2.559305e-02 -3.932325e-02
7.640000e+10 1.049701e-02 -3.740458e-02 9.648492e-01 -2.440618e-01 9.650342e-01 -2.452668e-01 -2.569121e-02 -3.937135e-02
7.653333e+10 1.052015e-02 -3.748116e-02 9.647378e-01 -2.444796e-01 9.649233e-01 -2.456871e-01 -2.578952e-02 -3.941934e-02
7.666667e+10 1.054331e-02 -3.755779e-02 9.646261e-01 -2.448974e-01 9.648122e-01 -2.461074e-01 -2.588799e-02 -3.946721e-02
7.680000e+10 1.056651e-02 -3.763447e-02 9.645143e-01 -2.453152e-01 9.647008e-01 -2.465277e-01 -2.598662e-02 -3.951498e-02
7.693333e+10 1.058972e-02 -3.771119e-02 9.644023e-01 -2.457330e-01 9.645893e-01 -2.469479e-01 -2.608540e-02 -3.956263e-02
7.706667e+10 1.061296e-02 -3.778797e-02 9.642901e-01 -2.461507e-01 9.644775e-01 -2.473680e-01 -2.618434e-02 -3.961017e-02
7.720000e+10 1.063623e-02 -3.786480e-02 9.641776e-01 -2.465683e-01 9.643656e-01 -2.477882e-01 -2.628343e-02 -3.965759e-02
7.733333e+10 1.065952e-02 -3.794168e-02 9.640650e-01 -2.469859e-01 9.642535e-01 -2.482082e-01 -2.638269e-02 -3.970490e-02
7.746667e+10 1.068284e-02 -3.801860e-02 9.639522e-01 -2.474035e-01 9.641411e-01 -2.486283e-01 -2.648209e-02 -3.975210e-02
7.760000e+10 1.070618e-02 -3.809558e-02 9.638392e-01 -2.478211e-01 9.640286e-01 -2.490483e-01 -2.658166e-02 -3.979918e-02
7.773333e+10 1.072954e-02 -3.817261e-02 9.637260e-01 -2.482386e-01 9.639158e-01 -2.494683e-01 -2.668138e-02 -3.984615e-02
7.786667e+10 1.075294e-02 -3.824969e-02 9.636126e-01 -2.486561e-01 9.638029e-01 -2.498882e-01 -2.678125e-02 -3.989300e-02
7.800000e+10 1.077635e-02 -3.832682e-02 9.634990e-01 -2.490736e-01 9.636897e-01 -2.503081e-01 -2.688128e-02 -3.993974e-02
7.813333e+10 1.079979e-02 -3.840400e-02 9.633852e-01 -2.494910e-01 9.635764e-01 -2.507279e-01 -2.698147e-02 -3.998636e-02
7.826667e+10 1.082326e-02 -3.848123e-02 9.632712e-01 -2.499083e-01 9.634629e-01 -2.511477e-01 -2.708181e-02 -4.003287e-02
7.840000e+10 1.084675e-02 -3.855851e-02 9.631570e-01 -2.503257e-01 9.633491e-01 -2.515675e-01 -2.718231e-02 -4.007926e-02
7.853333e+10 1.087026e-02 -3.863584e-02 9.630426e-01 -2.507430e-01 9.632352e-01 -2.519872e-01 -2.728296e-02 -4.012554e-02
7.866667e+10 1.089380e-02 -3.871322e-02 9.629280e-01 -2.511602e-01 9.631210e-01 -2.524069e-01 -2.738376e-02 -4.017170e-02
7.880000e+10 1.091737e-02 -3.879066e-02 9.628133e-01 -2.515775e-01 9.630067e-01 -2.528265e-01 -2.748473e-02 -4.021775e-02
7.893333e+10 1.094096e-02 -3.886814e-02 9.626983e-01 -2.519947e-01 9.628921e-01 -2.532461e-01 -2.758584e-02 -4.026368e-02
7.906667e+10 1.096457e-02 -3.894568e-02 9.625831e-01 -2.524118e-01 9.627774e-01 -2.536656e-01 -2.768711e-02 -4.030949e-02
7.920000e+10 1.098821e-02 -3.902326e-02 9.624677e-01 -2.528289e-01 9.626624e-01 -2.540851e-01 -2.778854e-02 -4.035518e-02
7.933333e+10 1.101187e-02 -3.910090e-02 9.623521e-01 -2.532460e-01 9.625473e-01 -2.545046e-01 -2.789011e-02 -4.040076e-02
7.946667e+10 1.103556e-02 -3.917859e-02 9.622363e-01 -2.536631e-01 9.624319e-01 -2.549240e-01 -2.799185e-02 -4.044622e-02
7.960000e+10 1.105927e-02 -3.925633e-02 9.621204e-01 -2.540801e-01 9.623164e-01 -2.553434e-01 -2.809373e-02 -4.049156e-02
7.973333e+10 1.108301e-02 -3.933412e-02 9.620042e-01 -2.544970e-01 9.622006e-01 -2.557627e-01 -2.819577e-02 -4.053679e-02
7.986667e+10 1.110677e-02 -3.941196e-02 9.618878e-01 -2.549140e-01 9.620847e-01 -2.561820e-01 -2.829797e-02 -4.058190e-02
8.000000e+10 1.113055e-02 -3.948986e-02 9.617712e-01 -2.553308e-01 9.619685e-01 -2.566012e-01 -2.840031e-02 -4.062689e-02
8.013333e+10 1.115436e-02 -3.956781e-02 9.616545e-01 -2.557477e-01 9.618522e-01 -2.570204e-01 -2.850281e-02 -4.067176e-02
8.026667e+10 1.117820e-02 -3.964580e-02 9.615375e-01 -2.561645e-01 9.617356e-01 -2.574395e-01 -2.860547e-02 -4.071651e-02
8.040000e+10 1.120205e-02 -3.972385e-02 9.614203e-01 -2.565813e-01 9.616189e-01 -2.578586e-01 -2.870827e-02 -4.076114e-02
8.053333e+10 1.122594e-02 -3.980196e-02 9.613029e-01 -2.569980e-01 9.615019e-01 -2.582777e-01 -2.881123e-02 -4.080565e-02
8.066667e+10 1.124984e-02 -3.988011e-02 9.611854e-01 -2.574147e-01 9.613848e-01 -2.586967e-01 -2.891435e-02 -4.085005e-02
8.080000e+10 1.127377e-02 -3.995831e-02 9.610676e-01 -2.578314e-01 9.612674e-01 -2.591157e-01 -2.901761e-02 -4.089432e-02
8.093333e+10 1.129773e-02 -4.003657e-02 9.609496e-01 -2.582480e-01 9.611499e-01 -2.595346e-01 -2.912103e-02 -4.093848e-02
8.106667e+10 1.132171e-02 -4.011488e-02 9.608315e-01 -2.586645e-01 9.610321e-01 -2.599534e-01 -2.922460e-02 -4.098251e-02
8.120000e+10 1.134571e-02 -4.019325e-02 9.607131e-01 -2.590811e-01 9.609142e-01 -2.603723e-01 -2.932832e-02 -4.102643e-02
8.133333e+10 1.136974e-02 -4.027166e-02 9.605945e-01 -2.594976e-01 9.607960e-01 -2.607910e-01 -2.943219e-02 -4.107022e-02
8.146667e+10 1.139379e-02 -4.035013e-02 9.604757e-01 -2.599140e-01 9.606777e-01 -2.612098e-01 -2.953622e-02 -4.111390e-02
8.160000e+10 1.141787e-02 -4.042865e-02 9.603568e-01 -2.603304e-01 9.605591e-01 -2.616284e-01 -2.964039e-02 -4.115745e-02
8.173333e+10 1.144197e-02 -4.050722e-02 9.602376e-01 -2.607468e-01 9.604404e-01 -2.620471e-01 -2.974472e-02 -4.120088e-02
8.186667e+10 1.146609e-02 -4.058585e-02 9.601182e-01 -2.611631e-01 9.603214e-01 -2.624657e-01 -2.984920e-02 -4.124419e-02
8.200000e+10 1.149024e-02 -4.066452e-02 9.599986e-01 -2.615794e-01 9.602023e-01 -2.628842e-01 -2.995383e-02 -4.128738e-02
8.213333e+10 1.151441e-02 -4.074326e-02 9.598789e-01 -2.619957e-01 9.600829e-01 -2.633027e-01 -3.005861e-02 -4.133045e-02
8.226667e+10 1.153860e-02 -4.082204e-02 9.597589e-01 -2.624119e-01 9.599634e-01 -2.637211e-01 -3.016354e-02 -4.137339e-02
8.240000e+10 1.156282e-02 -4.090088e-02 9.596387e-01 -2.628280e-01 9.598436e-01 -2.641395e-01 -3.026863e-02 -4.141621e-02
8.253333e+10 1.158706e-02 -4.097977e-02 9.595183e-01 -2.632442e-01 9.597237e-01 -2.645579e-01 -3.037386e-02 -4.145891e-02
8.266667e+10 1.161133e-02 -4.105871e-02 9.593977e-01 -2.636602e-01 9.596035e-01 -2.649761e-01 -3.047924e-02 -4.150149e-02
8.280000e+10 1.163562e-02 -4.113771e-02 9.592770e-01 -2.640763e-01 9.594832e-01 -2.653944e-01 -3.058478e-02 -4.154395e-02
8.293333e+10 1.165993e-02 -4.121676e-02 9.591560e-01 -2.644923e-01 9.593626e-01 -2.658126e-01 -3.069046e-02 -4.158628e-02
8.306667e+10 1.168427e-02 -4.129586e-02 9.590348e-01 -2.649082e-01 9.592419e-01 -2.662307e-01 -3.079630e-02 -4.162849e-02
8.320000e+10 1.170863e-02 -4.137502e-02 9.589134e-01 -2.653241e-01 9.591210e-01 -2.666488e-01 -3.090228e-02 -4.167057e-02
8.333333e+10 1.173302e-02 -4.145424e-02 9.587918e-01 -2.657400e-01 9.589998e-01 -2.670669e-01 -3.100841e-02 -4.171253e-02
8.346667e+10 1.175742e-02 -4.153350e-02 9.586700e-01 -2.661558e-01 9.588785e-01 -2.674849e-01 -3.111470e-02 -4.175437e-02
8.360000e+10 1.178185e-02 -4.161282e-02 9.585480e-01 -2.665716e-01 9.587569e-01 -2.679028e-01 -3.122113e-02 -4.179609e-02
8.373333e+10 1.180631e-02 -4.169220e-02 9.584259e-01 -2.669873e-01 9.586352e-01 -2.683207e-01 -3.132771e-02 -4.183768e-02
8.386667e+10 1.183079e-02 -4.177162e-02 9.583035e-01 -2.674030e-01 9.585133e-01 -2.687385e-01 -3.143444e-02 -4.187914e-02
8.400000e+10 1.185529e-02 -4.185111e-02 9.581809e-01 -2.678186e-01 9.583911e-01 -2.691563e-01 -3.154132e-02 -4.192048e-02
8.413333e+10 1.187981e-02 -4.193064e-02 9.580581e-01 -2.682342e-01 9.582688e-01 -2.695741e-01 -3.164834e-02 -4.196170e-02
8.426667e+10 1.190436e-02 -4.201023e-02 9.579351e-01 -2.686498e-01 9.581463e-01 -2.699918e-01 -3.175552e-02 -4.200279e-02
8.440000e+10 1.192893e-02 -4.208988e-02 9.578119e-01 -2.690653e-01 9.580236e-01 -2.704094e-01 -3.186284e-02 -4.204375e-02
8.453333e+10 1.195352e-02 -4.216958e-02 9.576885e-01 -2.694808e-01 9.579007e-01 -2.708270e-01 -3.197031e-02 -4.208459e-02
8.466667e+10 1.197814e-02 -4.224934e-02 9.575649e-01 -2.698962e-01 9.577775e-01 -2.712445e-01 -3.207793e-02 -4.212531e-02
8.480000e+10 1.200278e-02 -4.232915e-02 9.574411e-01 -2.703116e-01 9.576542e-01 -2.716620e-01 -3.218570e-02 -4.216589e-02
8.493333e+10 1.202744e-02 -4.240901e-02 9.573170e-01 -2.707269e-01 9.575307e-01 -2.720794e-01 -3.229362e-02 -4.220636e-02
8.506667e+10 1.205213e-02 -4.248893e-02 9.571928e-01 -2.711422e-01 9.574070e-01 -2.724968e-01 -3.240168e-02 -4.224669e-02
8.520000e+10 1.207683e-02 -4.256891e-02 9.570684e-01 -2.715574e-01 9.572831e-01 -2.729141e-01 -3.250989e-02 -4.228690e-02
8.533333e+10 1.210157e-02 -4.264894e-02 9.569438e-01 -2.719726e-01 9.571590e-01 -2.733314e-01 -3.261824e-02 -4.232699e-02
8.546667e+10 1.212632e-02 -4.272903e-02 9.568190e-01 -2.723878e-01 9.570347e-01 -2.737486e-01 -3.272675e-02 -4.236694e-02
8.560000e+10 1.215109e-02 -4.280917e-02 9.566940e-01 -2.728029e-01 9.569102e-01 -2.741658e-01 -3.283540e-02 -4.240677e-02
8.573333e+10 1.217589e-02 -4.288937e-02 9.565687e-01 -2.732179e-01 9.567855e-01 -2.745829e-01 -3.294419e-02 -4.244647e-02
8.586667e+10 1.220071e-02 -4.296962e-02 9.564433e-01 -2.736329e-01 9.566606e-01 -2.750000e-01 -3.305314e-02 -4.248605e-02
8.600000e+10 1.222556e-02 -4.304993e-02 9.563177e-01 -2.740479e-01 9.565355e-01 -2.754170e-01 -3.316223e-02 -4.252550e-02
8.613333e+10 1.225042e-02 -4.313029e-02 9.561919e-01 -2.744628e-01 9.564102e-01 -2.758340e-01 -3.327146e-02 -4.256482e-02
8.626667e+10 1.227531e-02 -4.321072e-02 9.560658e-01 -2.748776e-01 9.562848e-01 -2.762509e-01 -3.338084e-02 -4.260401e-02
8.640000e+10 1.230022e-02 -4.329119e-02 9.559396e-01 -2.752925e-01 9.561591e-01 -2.766677e-01 -3.349037e-02 -4.264307e-02
8.653333e+10 1.232516e-02 -4.337173e-02 9.558132e-01 -2.757072e-01 9.560332e-01 -2.770845e-01 -3.360004e-02 -4.268201e-02
8.666667e+10 1.235011e-02 -4.345232e-02 9.556865e-01 -2.761219e-01 9.559072e-01 -2.775013e-01 -3.370986e-02 -4.272082e-02
8.680000e+10 1.237509e-02 -4.353296e-02 9.555597e-01 -2.765366e-01 9.557809e-01 -2.779180e-01 -3.381982e-02 -4.275950e-02
8.693333e+10 1.240009e-02 -4.361366e-02 9.554326e-01 -2.769512e-01 9.556545e-01 -2.783346e-01 -3.392993e-02 -4.279804e-02
8.706667e+10 1.242511e-02 -4.369442e-02 9.553054e-01 -2.773658e-01 9.555278e-01 -2.787512e-01 -3.404018e-02 -4.283647e-02
8.720000e+10 1.245015e-02 -4.377524e-02 9.551779e-01 -2.777803e-01 9.554010e-01 -2.791677e-01 -3.415058e-02 -4.287476e-02
8.733333e+10 1.247522e-02 -4.385611e-02 9.550503e-01 -2.781948e-01 9.552739e-01 -2.795842e-01 -3.426112e-02 -4.291292e-02
8.746667e+10 1.250030e-02 -4.393704e-02 9.549224e-01 -2.786092e-01 9.551467e-01 -2.800006e-01 -3.437181e-02 -4.295095e-02
8.760000e+10 1.252541e-02 -4.401803e-02 9.547944e-01 -2.790236e-01 9.550192e-01 -2.804170e-01 -3.448264e-02 -4.298886e-02
8.773333e+10 1.255054e-02 -4.409907e-02 9.546661e-01 -2.794379e-01 9.548916e-01 -2.808333e-01 -3.459361e-02 -4.302663e-02
8.786667e+10 1.257569e-02 -4.418018e-02 9.545377e-01 -2.798522e-01 9.547638e-01 -2.812496e-01 -3.470473e-02 -4.306427e-02
8.800000e+10 1.260087e-02 -4.426133e-02 9.544090e-01 -2.802664e-01 9.546358e-01 -2.816658e-01 -3.481599e-02 -4.310179e-02
8.813333e+10 1.262606e-02 -4.434255e-02 9.542801e-01 -2.806806e-01 9.545076e-01 -2.820819e-01 -3.492740e-02 -4.313917e-02
8.826667e+10 1.265128e-02 -4.442383e-02 9.541511e-01 -2.810947e-01 9.543792e-01 -2.824980e-01 -3.503894e-02 -4.317642e-02
8.840000e+10 1.267651e-02 -4.450516e-02 9.540218e-01 -2.815088e-01 9.542506e-01 -2.829141e-01 -3.515064e-02 -4.321354e-02
8.853333e+10 1.270177e-02 -4.458655e-02 9.538923e-01 -2.819228e-01 9.541218e-01 -2.833301e-01 -3.526247e-02 -4.325054e-02
8.866667e+10 1.272705e-02 -4.466799e-02 9.537627e-01 -2.823368e-01 9.539928e-01 -2.837460e-01 -3.537445e-02 -4.328740e-02
8.880000e+10 1.275235e-02 -4.474950e-02 9.536328e-01 -2.827507e-01 9.538636e-01 -2.841619e-01 -3.548657e-02 -4.332412e-02
8.893333e+10 1.277767e-02 -4.483106e-02 9.535027e-01 -2.831646e-01 9.537343e-01 -2.845777e-01 -3.559883e-02 -4.336072e-02
8.906667e+10 1.280302e-02 -4.491269e-02 9.533724e-01 -2.835784e-01 9.536047e-01 -2.849935e-01 -3.571123e-02 -4.339719e-02
8.920000e+10 1.282838e-02 -4.499437e-02 9.532419e-01 -2.839921e-01 9.534749e-01 -2.854092e-01 -3.582378e-02 -4.343352e-02
8.933333e+10 1.285376e-02 -4.507610e-02 9.531112e-01 -2.844058e-01 9.533450e-01 -2.858249e-01 -3.593647e-02 -4.346972e-02
8.946667e+10 1.287917e-02 -4.515790e-02 9.529803e-01 -2.848195e-01 9.532148e-01 -2.862405e-01 -3.604930e-02 -4.350580e-02
8.960000e+10 1.290459e-02 -4.523976e-02 9.528493e-01 -2.852331e-01 9.530845e-01 -2.866560e-01 -3.616227e-02 -4.354173e-02
8.973333e+10 1.293004e-02 -4.532167e-02 9.527180e-01 -2.856467e-01 9.529540e-01 -2.870715e-01 -3.627539e-02 -4.357754e-02
8.986667e+10 1.295550e-02 -4.540365e-02 9.525865e-01 -2.860602e-01 9.528233e-01 -2.874870e-01 -3.638864e-02 -4.361321e-02
9.000000e+10 1.298099e-02 -4.548568e-02 9.524548e-01 -2.864736e-01 9.526923e-01 -2.879024e-01 -3.650204e-02 -4.364875e-02
9.013333e+10 1.300650e-02 -4.556777e-02 9.523229e-01 -2.868870e-01 9.525612e-01 -2.883177e-01 -3.661557e-02 -4.368416e-02
9.026667e+10 1.303203e-02 -4.564992e-02 9.521908e-01 -2.873003e-01 9.524299e-01 -2.887330e-01 -3.672925e-02 -4.371944e-02
9.040000e+10 1.305757e-02 -4.573213e-02 9.520585e-01 -2.877136e-01 9.522984e-01 -2.891482e-01 -3.684307e-02 -4.375458e-02
9.053333e+10 1.308314e-02 -4.581440e-02 9.519260e-01 -2.881269e-01 9.521667e-01 -2.895634e-01 -3.695703e-02 -4.378959e-02
9.066667e+10 1.310873e-02 -4.589673e-02 9.517932e-01 -2.885400e-01 9.520349e-01 -2.899785e-01 -3.707113e-02 -4.382446e-02
9.080000e+10 1.313433e-02 -4.597912e-02 9.516603e-01 -2.889532e-01 9.519028e-01 -2.903936e-01 -3.718537e-02 -4.385921e-02
9.093333e+10 1.315996e-02 -4.606157e-02 9.515272e-01 -2.893662e-01 9.517705e-01 -2.908086e-01 -3.729975e-02 -4.389382e-02
9.106667e+10 1.318561e-02 -4.614407e-02 9.513939e-01 -2.897793e-01 9.516381e-01 -2.912235e-01 -3.741427e-02 -4.392829e-02
9.120000e+10 1.321127e-02 -4.622664e-02 9.512604e-01 -2.901922e-01 9.515054e-01 -2.916384e-01 -3.752892e-02 -4.396263e-02
9.133333e+10 1.323696e-02 -4.630927e-02 9.511267e-01 -2.906051e-01 9.513726e-01 -2.920533e-01 -3.764372e-02 -4.399684e-02
9.146667e+10 1.326266e-02 -4.639196e-02 9.509928e-01 -2.910180e-01 9.512396e-01 -2.924680e-01 -3.775866e-02 -4.403091e-02
9.160000e+10 1.328839e-02 -4.647471e-02 9.508586e-01 -2.914308e-01 9.511064e-01 -2.928828e-01 -3.787374e-02 -4.406485e-02
9.173333e+10 1.331413e-02 -4.655752e-02 9.507243e-01 -2.918435e-01 9.509729e-01 -2.932974e-01 -3.798895e-02 -4.409865e-02
9.186667e+10 1.333989e-02 -4.664038e-02 9.505898e-01 -2.922562e-01 9.508393e-01 -2.937121e-01 -3.810431e-02 -4.413232e-02
9.200000e+10 1.336568e-02 -4.672331e-02 9.504551e-01 -2.926688e-01 9.507055e-01 -2.941266e-01 -3.821980e-02 -4.416585e-02
9.213333e+10 1.339148e-02 -4.680630e-02 9.503201e-01 -2.930814e-01 9.505716e-01 -2.945411e-01 -3.833543e-02 -4.419925e-02
9.226667e+10 1.341730e-02 -4.688936e-02 9.501850e-01 -2.934939e-01 9.504374e-01 -2.949556e-01 -3.845120e-02 -4.423251e-02
9.240000e+10 1.344313e-02 -4.697247e-02 9.500497e-01 -2.939064e-01 9.503030e-01 -2.953700e-01 -3.856711e-02 -4.426564e-02
9.253333e+10 1.346899e-02 -4.705564e-02 9.499141e-01 -2.943188e-01 9.501684e-01 -2.957843e-01 -3.868315e-02 -4.429864e-02
9.266667e+10 1.349487e-02 -4.713887e-02 9.497784e-01 -2.947312e-01 9.500337e-01 -2.961986e-01 -3.879934e-02 -4.433149e-02
9.280000e+10 1.352076e-02 -4.722217e-02 9.496425e-01 -2.951435e-01 9.498988e-01 -2.966129e-01 -3.891566e-02 -4.436421e-02
9.293333e+10 1.354667e-02 -4.730553e-02 9.495064e-01 -2.955557e-01 9.497636e-01 -2.970271e-01 -3.903212e-02 -4.439680e-02
9.306667e+10 1.357260e-02 -4.738894e-02 9.493700e-01 -2.959679e-01 9.496283e-01 -2.974412e-01 -3.914871e-02 -4.442925e-02
9.320000e+10 1.359855e-02 -4.747242e-02 9.492335e-01 -2.963800e-01 9.494928e-01 -2.978553e-01 -3.926545e-02 -4.446156e-02
9.333333e+10 1.362452e-02 -4.755596e-02 9.490967e-01 -2.967921e-01 9.493571e-01 -2.982693e-01 -3.938232e-02 -4.449374e-02
9.346667e+10 1.365050e-02 -4.763956e-02 9.489598e-01 -2.972041e-01 9.492212e-01 -2.986832e-01 -3.949932e-02 -4.452578e-02
9.360000e+10 1.367651e-02 -4.772323e-02 9.488227e-01 -2.976160e-01 9.490851e-01 -2.990972e-01 -3.961647e-02 -4.455768e-02
9.373333e+10 1.370253e-02 -4.780695e-02 9.486853e-01 -2.980279e-01 9.489488e-01 -2.995110e-01 -3.973375e-02 -4.458945e-02
9.386667e+10 1.372857e-02 -4.789074e-02 9.485478e-01 -2.984398e-01 9.488124e-01 -2.999248e-01 -3.985117e-02 -4.462108e-02
9.400000e+10 1.375462e-02 -4.797459e-02 9.484100e-01 -2.988515e-01 9.486757e-01 -3.003386e-01 -3.996872e-02 -4.465258e-02
9.413333e+10 1.378070e-02 -4.805850e-02 9.482721e-01 -2.992633e-01 9.485389e-01 -3.007523e-01 -4.008641e-02 -4.468393e-02
9.426667e+10 1.380679e-02 -4.814248e-02 9.481340e-01 -2.996749e-01 9.484018e-01 -3.011659e-01 -4.020423e-02 -4.471515e-02
9.440000e+10 1.383290e-02 -4.822651e-02 9.479956e-01 -3.000865e-01 9.482646e-01 -3.015795e-01 -4.032219e-02 -4.474623e-02
9.453333e+10 1.385902e-02 -4.831061e-02 9.478571e-01 -3.004981e-01 9.481272e-01 -3.019930e-01 -4.044029e-02 -4.477718e-02
9.466667e+10 1.388516e-02 -4.839477e-02 9.477183e-01 -3.009096e-01 9.479896e-01 -3.024065e-01 -4.055852e-02 -4.480798e-02
9.480000e+10 1.391132e-02 -4.847899e-02 9.475794e-01 -3.013210e-01 9.478518e-01 -3.028199e-01 -4.067689e-02 -4.483865e-02
9.493333e+10 1.393750e-02 -4.856328e-02 9.474403e-01 -3.017324e-01 9.477138e-01 -3.032333e-01 -4.079540e-02 -4.486918e-02
9.506667e+10 1.396369e-02 -4.864763e-02 9.473009e-01 -3.021437e-01 9.475756e-01 -3.036466e-01 -4.091403e-02 -4.489958e-02
9.520000e+10 1.398990e-02 -4.873204e-02 9.471614e-01 -3.025549e-01 9.474372e-01 -3.040598e-01 -4.103281e-02 -4.492983e-02
9.533333e+10 1.401613e-02 -4.881652e-02 9.470216e-01 -3.029661e-01 9.472987e-01 -3.044730e-01 -4.115171e-02 -4.495995e-02
9.546667e+10 1.404237e-02 -4.890105e-02 9.468817e-01 -3.033773e-01 9.471599e-01 -3.048862e-01 -4.127076e-02 -4.498993e-02
9.560000e+10 1.406863e-02 -4.898565e-02 9.467416e-01 -3.037884e-01 9.470210e-01 -3.052993e-01 -4.138993e-02 -4.501977e-02
9.573333e+10 1.409491e-02 -4.907032e-02 9.466012e-01 -3.041994e-01 9.468819e-01 -3.057123e-01 -4.150925e-02 -4.504947e-02
9.586667e+10 1.412120e-02 -4.915504e-02 9.464607e-01 -3.046103e-01 9.467426e-01 -3.061253e-01 -4.162869e-02 -4.507903e-02
9.600000e+10 1.414751e-02 -4.923984e-02 9.463199e-01 -3.050212e-01 9.466030e-01 -3.065383e-01 -4.174827e-02 -4.510845e-02
9.613333e+10 1.417383e-02 -4.932469e-02 9.461790e-01 -3.054321e-01 9.464633e-01 -3.069512e-01 -4.186798e-02 -4.513774e-02
9.626667e+10 1.420017e-02 -4.940961e-02 9.460379e-01 -3.058429e-01 9.463235e-01 -3.073640e-01 -4.198783e-02 -4.516688e-02
9.640000e+10 1.422653e-02 -4.949459e-02 9.458965e-01 -3.062536e-01 9.461834e-01 -3.077768e-01 -4.210781e-02 -4.519589e-02
9.653333e+10 1.425290e-02 -4.957963e-02 9.457550e-01 -3.066643e-01 9.460431e-01 -3.081895e-01 -4.222793e-02 -4.522475e-02
9.666667e+10 1.427928e-02 -4.966474e-02 9.456133e-01 -3.070749e-01 9.459026e-01 -3.086022e-01 -4.234817e-02 -4.525348e-02
9.680000e+10 1.430569e-02 -4.974991e-02 9.454713e-01 -3.074854e-01 9.457620e-01 -3.090148e-01 -4.246855e-02 -4.528206e-02
9.693333e+10 1.433210e-02 -4.983515e-02 9.453292e-01 -3.078959e-01 9.456212e-01 -3.094273e-01 -4.258907e-02 -4.531051e-02
9.706667e+10 1.435853e-02 -4.992045e-02 9.451869e-01 -3.083063e-01 9.454801e-01 -3.098398e-01 -4.270972e-02 -4.533882e-02
9.720000e+10 1.438498e-02 -5.000582e-02 9.450443e-01 -3.087167e-01 9.453389e-01 -3.102523e-01 -4.283050e-02 -4.536698e-02
9.733333e+10 1.441144e-02 -5.009124e-02 9.449016e-01 -3.091270e-01 9.451975e-01 -3.106647e-01 -4.295141e-02 -4.539501e-02
9.746667e+10 1.443792e-02 -5.017674e-02 9.447587e-01 -3.095372e-01 9.450559e-01 -3.110771e-01 -4.307245e-02 -4.542290e-02
9.760000e+10 1.446441e-02 -5.026230e-02 9.446155e-01 -3.099474e-01 9.449141e-01 -3.114893e-01 -4.319363e-02 -4.545064e-02
9.773333e+10 1.449092e-02 -5.034792e-02 9.444722e-01 -3.103575e-01 9.447721e-01 -3.119016e-01 -4.331494e-02 -4.547825e-02
9.786667e+10 1.451744e-02 -5.043360e-02 9.443287e-01 -3.107676e-01 9.446300e-01 -3.123138e-01 -4.343638e-02 -4.550571e-02
9.800000e+10 1.454398e-02 -5.051936e-02 9.441850e-01 -3.111776e-01 9.444876e-01 -3.127259e-01 -4.355795e-02 -4.553303e-02
9.813333e+10 1.457053e-02 -5.060517e-02 9.440411e-01 -3.115875e-01 9.443450e-01 -3.131380e-01 -4.367966e-02 -4.556022e-02
9.826667e+10 1.459709e-02 -5.069105e-02 9.438970e-01 -3.119974e-01 9.442023e-01 -3.135500e-01 -4.380150e-02 -4.558726e-02
9.840000e+10 1.462367e-02 -5.077700e-02 9.437526e-01 -3.124072e-01 9.440594e-01 -3.139620e-01 -4.392347e-02 -4.561416e-02
9.853333e+10 1.465026e-02 -5.086301e-02 9.436081e-01 -3.128170e-01 9.439162e-01 -3.143740e-01 -4.404557e-02 -4.564092e-02
9.866667e+10 1.467687e-02 -5.094908e-02 9.434634e-01 -3.132266e-01 9.437729e-01 -3.147858e-01 -4.416780e-02 -4.566753e-02
9.880000e+10 1.470348e-02 -5.103522e-02 9.433185e-01 -3.136363e-01 9.436294e-01 -3.151977e-01 -4.429016e-02 -4.569401e-02
9.893333e+10 1.473012e-02 -5.112143e-02 9.431734e-01 -3.140459e-01 9.434857e-01 -3.156094e-01 -4.441265e-02 -4.572034e-02
9.906667e+10 1.475676e-02 -5.120770e-02 9.430281e-01 -3.144554e-01 9.433418e-01 -3.160211e-01 -4.453528e-02 -4.574653e-02
9.920000e+10 1.478342e-02 -5.129403e-02 9.428826e-01 -3.148648e-01 9.431978e-01 -3.164328e-01 -4.465803e-02 -4.577258e-02
9.933333e+10 1.481010e-02 -5.138044e-02 9.427369e-01 -3.152742e-01 9.430535e-01 -3.168444e-01 -4.478092e-02 -4.579849e-02
9.946667e+10 1.483678e-02 -5.146690e-02 9.425910e-01 -3.156835e-01 9.429090e-01 -3.172560e-01 -4.490394e-02 -4.582425e-02
9.960000e+10 1.486348e-02 -5.155344e-02 9.424449e-01 -3.160928e-01 9.427644e-01 -3.176675e-01 -4.502708e-02 -4.584988e-02
9.973333e+10 1.489020e-02 -5.164003e-02 9.422986e-01 -3.165020e-01 9.426196e-01 -3.180790e-01 -4.515036e-02 -4.587536e-02
9.986667e+10 1.491692e-02 -5.172670e-02 9.421521e-01 -3.169111e-01 9.424745e-01 -3.184904e-01 -4.527377e-02 -4.590069e-02
1.000000e+11 1.494366e-02 -5.181343e-02 9.420055e-01 -3.173202e-01 9.423293e-01 -3.189017e-01 -4.539731e-02 -4.592589e-02
1.001333e+11 1.497041e-02 -5.190022e-02 9.418586e-01 -3.177292e-01 9.421839e-01 -3.193130e-01 -4.552097e-02 -4.595094e-02
1.002667e+11 1.499717e-02 -5.198708e-02 9.417115e-01 -3.181382e-01 9.420383e-01 -3.197243e-01 -4.564477e-02 -4.597585e-02
1.004000e+11 1.502395e-02 -5.207401e-02 9.415642e-01 -3.185471e-01 9.418925e-01 -3.201355e-01 -4.576870e-02 -4.600061e-02
1.005333e+11 1.505074e-02 -5.216100e-02 9.414168e-01 -3.189559e-01 9.417465e-01 -3.205466e-01 -4.589276e-02 -4.602524e-02
1.006667e+11 1.507754e-02 -5.224806e-02 9.412691e-01 -3.193647e-01 9.416003e-01 -3.209577e-01 -4.601694e-02 -4.604971e-02
1.008000e+11 1.510435e-02 -5.233518e-02 9.411212e-01 -3.197734e-01 9.414539e-01 -3.213687e-01 -4.614126e-02 -4.607405e-02
1.009333e+11 1.513117e-02 -5.242237e-02 9.409732e-01 -3.201821e-01 9.413074e-01 -3.217797e-01 -4.626570e-02 -4.609824e-02
1.010667e+11 1.515801e-02 -5.250963e-02 9.408249e-01 -3.205907e-01 9.411606e-01 -3.221907e-01 -4.639028e-02 -4.612229e-02
1.012000e+11 1.518485e-02 -5.259696e-02 9.406765e-01 -3.209992e-01 9.410137e-01 -3.226016e-01 -4.651498e-02 -4.614619e-02
1.013333e+11 1.521171e-02 -5.268435e-02 9.405278e-01 -3.214076e-01 9.408665e-01 -3.230124e-01 -4.663981e-02 -4.616995e-02
1.014667e+11 1.523858e-02 -5.277180e-02 9.403790e-01 -3.218160e-01 9.407192e-01 -3.234232e-01 -4.676477e-02 -4.619357e-02
1.016000e+11 1.526546e-02 -5.285932e-02 9.402299e-01 -3.222244e-01 9.405717e-01 -3.238339e-01 -4.688986e-02 -4.621704e-02
1.017333e+11 1.529236e-02 -5.294691e-02 9.400807e-01 -3.226327e-01 9.404239e-01 -3.242446e-01 -4.701508e-02 -4.624036e-02
1.018667e+11 1.531926e-02 -5.303457e-02 9.399312e-01 -3.230409e-01 9.402760e-01 -3.246552e-01 -4.714042e-02 -4.626355e-02
1.020000e+11 1.534618e-02 -5.312229e-02 9.397816e-01 -3.234490e-01 9.401279e-01 -3.250658e-01 -4.726590e-02 -4.628658e-02
1.021333e+11 1.537310e-02 -5.321008e-02 9.396318e-01 -3.238571e-01 9.399796e-01 -3.254763e-01 -4.739150e-02 -4.630948e-02
1.022667e+11 1.540004e-02 -5.329794e-02 9.394818e-01 -3.242652e-01 9.398311e-01 -3.258868e-01 -4.751723e-02 -4.633222e-02
1.024000e+11 1.542699e-02 -5.338586e-02 9.393315e-01 -3.246731e-01 9.396824e-01 -3.262972e-01 -4.764309e-02 -4.635482e-02
1.025333e+11 1.545394e-02 -5.347385e-02 9.391811e-01 -3.250810e-01 9.395336e-01 -3.267076e-01 -4.776907e-02 -4.637728e-02
1.026667e+11 1.548091e-02 -5.356191e-02 9.390305e-01 -3.254889e-01 9.393845e-01 -3.271179e-01 -4.789519e-02 -4.639959e-02
1.028000e+11 1.550789e-02 -5.365003e-02 9.388797e-01 -3.258967e-01 9.392352e-01 -3.275282e-01 -4.802143e-02 -4.642176e-02
1.029333e+11 1.553488e-02 -5.373822e-02 9.387287e-01 -3.263044e-01 9.390858e-01 -3.279384e-01 -4.814780e-02 -4.644378e-02
1.030667e+11 1.556188e-02 -5.382648e-02 9.385775e-01 -3.267120e-01 9.389361e-01 -3.283486e-01 -4.827430e-02 -4.646565e-02
1.032000e+11 1.558889e-02 -5.391480e-02 9.384261e-01 -3.271196e-01 9.387863e-01 -3.287587e-01 -4.840092e-02 -4.648738e-02
1.033333e+11 1.561591e-02 -5.400319e-02 9.382745e-01 -3.275272e-01 9.386362e-01 -3.291688e-01 -4.852767e-02 -4.650896e-02
1.034667e+11 1.564294e-02 -5.409165e-02 9.381227e-01 -3.279346e-01 9.384860e-01 -3.295788e-01 -4.865455e-02 -4.653040e-02
1.036000e+11 1.566997e-02 -5.418018e-02 9.379708e-01 -3.283420e-01 9.383356e-01 -3.299887e-01 -4.878155e-02 -4.655169e-02
1.037333e+11 1.569702e-02 -5.426877e-02 9.378186e-01 -3.287494e-01 9.381850e-01 -3.303986e-01 -4.890869e-02 -4.657283e-02
1.038667e+11 1.572408e-02 -5.435743e-02 9.376662e-01 -3.291567e-01 9.380341e-01 -3.308085e-01 -4.903594e-02 -4.659383e-02
1.040000e+11 1.575115e-02 -5.444616e-02 9.375136e-01 -3.295639e-01 9.378831e-01 -3.312183e-01 -4.916333e-02 -4.661468e-02
1.041333e+11 1.577822e-02 -5.453496e-02 9.373609e-01 -3.299711e-01 9.377319e-01 -3.316280e-01 -4.929084e-02 -4.663538e-02
1.042667e+11 1.580531e-02 -5.462382e-02 9.372079e-01 -3.303782e-01 9.375805e-01 -3.320378e-01 -4.941848e-02 -4.665594e-02
1.044000e+11 1.583240e-02 -5.471276e-02 9.370548e-01 -3.307852e-01 9.374289e-01 -3.324474e-01 -4.954625e-02 -4.667635e-02
1.045333e+11 1.585951e-02 -5.480175e-02 9.369014e-01 -3.311922e-01 9.372771e-01 -3.328570e-01 -4.967414e-02 -4.669661e-02
1.046667e+11 1.588662e-02 -5.489082e-02 9.367479e-01 -3.315991e-01 9.371251e-01 -3.332665e-01 -4.980215e-02 -4.671672e-02
1.048000e+11 1.591374e-02 -5.497996e-02 9.365941e-01 -3.320059e-01 9.369730e-01 -3.336760e-01 -4.993030e-02 -4.673669e-02
1.049333e+11 1.594087e-02 -5.506916e-02 9.364402e-01 -3.324127e-01 9.368206e-01 -3.340855e-01 -5.005856e-02 -4.675651e-02
1.050667e+11 1.596801e-02 -5.515843e-02 9.362861e-01 -3.328194e-01 9.366680e-01 -3.344949e-01 -5.018696e-02 -4.677618e-02
1.052000e+11 1.599515e-02 -5.524777e-02 9.361318e-01 -3.332261e-01 9.365152e-01 -3.349042e-01 -5.031548e-02 -4.679570e-02
1.053333e+11 1.602231e-02 -5.533717e-02 9.359772e-01 -3.336327e-01 9.363623e-01 -3.353135e-01 -5.044413e-02 -4.681507e-02
1.054667e+11 1.604947e-02 -5.542665e-02 9.358225e-01 -3.340393e-01 9.362091e-01 -3.357227e-01 -5.057290e-02 -4.683430e-02
1.056000e+11 1.607664e-02 -5.551619e-02 9.356676e-01 -3.344457e-01 9.360557e-01 -3.361319e-01 -5.070179e-02 -4.685338e-02
1.057333e+11 1.610382e-02 -5.560580e-02 9.355125e-01 -3.348521e-01 9.359022e-01 -3.365411e-01 -5.083082e-02 -4.687231e-02
1.058667e+11 1.613101e-02 -5.569548e-02 9.353572e-01 -3.352585e-01 9.357484e-01 -3.369501e-01 -5.095996e-02 -4.689109e-02
1.060000e+11 1.615820e-02 -5.578522e-02 9.352017e-01 -3.356648e-01 9.355945e-01 -3.373592e-01 -5.108924e-02 -4.690972e-02
1.061333e+11 1.618540e-02 -5.587504e-02 9.350460e-01 -3.360710e-01 9.354403e-01 -3.377681e-01 -5.121863e-02 -4.692820e-02
1.062667e+11 1.621261e-02 -5.596492e-02 9.348901e-01 -3.364772e-01 9.352860e-01 -3.381771e-01 -5.134816e-02 -4.694653e-02
1.064000e+11 1.623983e-02 -5.605487e-02 9.347341e-01 -3.368833e-01 9.351314e-01 -3.385859e-01 -5.147780e-02 -4.696472e-02
1.065333e+11 1.626705e-02 -5.614489e-02 9.345778e-01 -3.372893e-01 9.349767e-01 -3.389948e-01 -5.160758e-02 -4.698275e-02
1.066667e+11 1.629428e-02 -5.623498e-02 9.344213e-01 -3.376953e-01 9.348218e-01 -3.394035e-01 -5.173747e-02 -4.700064e-02
1.068000e+11 1.632152e-02 -5.632513e-02 9.342647e-01 -3.381012e-01 9.346666e-01 -3.398122e-01 -5.186749e-02 -4.701837e-02
1.069333e+11 1.634877e-02 -5.641536e-02 9.341078e-01 -3.385071e-01 9.345113e-01 -3.402209e-01 -5.199764e-02 -4.703596e-02
1.070667e+11 1.637602e-02 -5.650565e-02 9.339507e-01 -3.389129e-01 9.343558e-01 -3.406295e-01 -5.212791e-02 -4.705339e-02
1.072000e+11 1.640328e-02 -5.659601e-02 9.337935e-01 -3.393186e-01 9.342000e-01 -3.410381e-01 -5.225830e-02 -4.707067e-02
1.073333e+11 1.643055e-02 -5.668644e-02 9.336360e-01 -3.397243e-01 9.340441e-01 -3.414466e-01 -5.238882e-02 -4.708781e-02
1.074667e+11 1.645782e-02 -5.677694e-02 9.334784e-01 -3.401299e-01 9.338880e-01 -3.418550e-01 -5.251946e-02 -4.710479e-02
1.076000e+11 1.648510e-02 -5.686751e-02 9.333206e-01 -3.405355e-01 9.337316e-01 -3.422634e-01 -5.265023e-02 -4.712162e-02
1.077333e+11 1.651239e-02 -5.695814e-02 9.331625e-01 -3.409409e-01 9.335751e-01 -3.426718e-01 -5.278112e-02 -4.713831e-02
1.078667e+11 1.653968e-02 -5.704885e-02 9.330043e-01 -3.413464e-01 9.334184e-01 -3.430800e-01 -5.291213e-02 -4.715484e-02
1.080000e+11 1.656698e-02 -5.713962e-02 9.328459e-01 -3.417517e-01 9.332615e-01 -3.434883e-01 -5.304327e-02 -4.717122e-02
1.081333e+11 1.659428e-02 -5.723046e-02 9.326873e-01 -3.421570e-01 9.331043e-01 -3.438965e-01 -5.317453e-02 -4.718744e-02
1.082667e+11 1.662159e-02 -5.732137e-02 9.325285e-01 -3.425623e-01 9.329470e-01 -3.443046e-01 -5.330591e-02 -4.720352e-02
1.084000e+11 1.664891e-02 -5.741235e-02 9.323695e-01 -3.429675e-01 9.327895e-01 -3.447127e-01 -5.343742e-02 -4.721945e-02
1.085333e+11 1.667623e-02 -5.750340e-02 9.322103e-01 -3.433726e-01 9.326318e-01 -3.451207e-01 -5.356905e-02 -4.723522e-02
1.086667e+11 1.670356e-02 -5.759452e-02 9.320509e-01 -3.437776e-01 9.324738e-01 -3.455287e-01 -5.370080e-02 -4.725084e-02
1.088000e+11 1.673089e-02 -5.768571e-02 9.318913e-01 -3.441826e-01 9.323157e-01 -3.459366e-01 -5.383268e-02 -4.726631e-02
1.089333e+11 1.675823e-02 -5.777696e-02 9.317315e-01 -3.445875e-01 9.321574e-01 -3.463444e-01 -5.396468e-02 -4.728163e-02
1.090667e+11 1.678558e-02 -5.786828e-02 9.315715e-01 -3.449924e-01 9.319989e-01 -3.467522e-01 -5.409680e-02 -4.729679e-02
1.092000e+11 1.681293e-02 -5.795968e-02 9.314113e-01 -3.453972e-01 9.318402e-01 -3.471600e-01 -5.422905e-02 -4.731180e-02
1.093333e+11 1.684029e-02 -5.805114e-02 9.312510e-01 -3.458020e-01 9.316812e-01 -3.475677e-01 -5.436142e-02 -4.732666e-02
1.094667e+11 1.686765e-02 -5.814267e-02 9.310904e-01 -3.462066e-01 9.315221e-01 -3.479753e-01 -5.449391e-02 -4.734137e-02
1.096000e+11 1.689501e-02 -5.823427e-02 9.309296e-01 -3.466113e-01 9.313628e-01 -3.483829e-01 -5.462652e-02 -4.735592e-02
1.097333e+11 1.692239e-02 -5.832594e-02 9.307687e-01 -3.470158e-01 9.312032e-01 -3.487905e-01 -5.475925e-02 -4.737032e-02
1.098667e+11 1.694976e-02 -5.841768e-02 9.306075e-01 -3.474203e-01 9.310435e-01 -3.491979e-01 -5.489211e-02 -4.738456e-02
1.100000e+11 1.697714e-02 -5.850949e-02 9.304462e-01 -3.478248e-01 9.308836e-01 -3.496053e-01 -5.502509e-02 -4.739866e-02
1.101333e+11 1.700453e-02 -5.860137e-02 9.302846e-01 -3.482291e-01 9.307235e-01 -3.500127e-01 -5.515819e-02 -4.741259e-02
1.102667e+11 1.703192e-02 -5.869331e-02 9.301229e-01 -3.486335e-01 9.305631e-01 -3.504200e-01 -5.529141e-02 -4.742638e-02
1.104000e+11 1.705932e-02 -5.878533e-02 9.299609e-01 -3.490377e-01 9.304026e-01 -3.508273e-01 -5.542476e-02 -4.744001e-02
1.105333e+11 1.708671e-02 -5.887741e-02 9.297988e-01 -3.494419e-01 9.302418e-01 -3.512345e-01 -5.555822e-02 -4.745348e-02
1.106667e+11 1.711412e-02 -5.896957e-02 9.296365e-01 -3.498460e-01 9.300809e-01 -3.516416e-01 -5.569181e-02 -4.746681e-02
1.108000e+11 1.714153e-02 -5.906179e-02 9.294740e-01 -3.502501e-01 9.299198e-01 -3.520487e-01 -5.582552e-02 -4.747997e-02
1.109333e+11 1.716894e-02 -5.915409e-02 9.293112e-01 -3.506541e-01 9.297584e-01 -3.524557e-01 -5.595935e-02 -4.749298e-02
1.110667e+11 1.719636e-02 -5.924645e-02 9.291483e-01 -3.510580e-01 9.295969e-01 -3.528627e-01 -5.609331e-02 -4.750584e-02
1.112000e+11 1.722378e-02 -5.933888e-02 9.289852e-01 -3.514619e-01 9.294351e-01 -3.532696e-01 -5.622738e-02 -4.751854e-02
1.113333e+11 1.725120e-02 -5.943139e-02 9.288219e-01 -3.518657e-01 9.292732e-01 -3.536765e-01 -5.636157e-02 -4.753109e-02
1.114667e+11 1.727863e-02 -5.952396e-02 9.286584e-01 -3.522695e-01 9.291110e-01 -3.540833e-01 -5.649589e-02 -4.754348e-02
1.116000e+11 1.730607e-02 -5.961660e-02 9.284947e-01 -3.526732e-01 9.289487e-01 -3.544900e-01 -5.663033e-02 -4.755571e-02
1.117333e+11 1.733350e-02 -5.970931e-02 9.283308e-01 -3.530768e-01 9.287861e-01 -3.548967e-01 -5.676488e-02 -4.756779e-02
1.118667e+11 1.736094e-02 -5.980209e-02 9.281667e-01 -3.534804e-01 9.286233e-01 -3.553034e-01 -5.689956e-02 -4.757972e-02
1.120000e+11 1.738839e-02 -5.989494e-02 9.280024e-01 -3.538839e-01 9.284604e-01 -3.557099e-01 -5.703436e-02 -4.759148e-02
1.121333e+11 1.741584e-02 -5.998786e-02 9.278379e-01 -3.542874e-01 9.282972e-01 -3.561164e-01 -5.716928e-02 -4.760309e-02
1.122667e+11 1.744329e-02 -6.008085e-02 9.276732e-01 -3.546908e-01 9.281338e-01 -3.565229e-01 -5.730432e-02 -4.761455e-02
1.124000e+11 1.747074e-02 -6.017391e-02 9.275084e-01 -3.550941e-01 9.279702e-01 -3.569293e-01 -5.743948e-02 -4.762584e-02
1.125333e+11 1.749820e-02 -6.026704e-02 9.273433e-01 -3.554974e-01 9.278065e-01 -3.573356e-01 -5.757476e-02 -4.763698e-02
1.126667e+11 1.752566e-02 -6.036024e-02 9.271780e-01 -3.559006e-01 9.276425e-01 -3.577419e-01 -5.771016e-02 -4.764797e-02
1.128000e+11 1.755312e-02 -6.045351e-02 9.270126e-01 -3.563037e-01 9.274783e-01 -3.581481e-01 -5.784568e-02 -4.765879e-02
1.129333e+11 1.758059e-02 -6.054685e-02 9.268469e-01 -3.567068e-01 9.273139e-01 -3.585543e-01 -5.798132e-02 -4.766946e-02
1.130667e+11 1.760806e-02 -6.064026e-02 9.266810e-01 -3.571098e-01 9.271493e-01 -3.589604e-01 -5.811707e-02 -4.767997e-02
1.132000e+11 1.763554e-02 -6.073374e-02 9.265150e-01 -3.575128e-01 9.269845e-01 -3.593665e-01 -5.825295e-02 -4.769032e-02
1.133333e+11 1.766301e-02 -6.082729e-02 9.263487e-01 -3.579157e-01 9.268195e-01 -3.597724e-01 -5.838895e-02 -4.770051e-02
1.134667e+11 1.769049e-02 -6.092091e-02 9.261823e-01 -3.583185e-01 9.266543e-01 -3.601784e-01 -5.852507e-02 -4.771055e-02
1.136000e+11 1.771797e-02 -6.101460e-02 9.260156e-01 -3.587213e-01 9.264888e-01 -3.605842e-01 -5.866131e-02 -4.772043e-02
1.137333e+11 1.774546e-02 -6.110835e-02 9.258488e-01 -3.591240e-01 9.263232e-01 -3.609900e-01 -5.879766e-02 -4.773015e-02
1.138667e+11 1.777294e-02 -6.120218e-02 9.256817e-01 -3.595266e-01 9.261574e-01 -3.613958e-01 -5.893414e-02 -4.773971e-02
1.140000e+11 1.780043e-02 -6.129608e-02 9.255145e-01 -3.599292e-01 9.259914e-01 -3.618015e-01 -5.907073e-02 -4.774911e-02
1.141333e+11 1.782792e-02 -6.139005e-02 9.253470e-01 -3.603317e-01 9.258251e-01 -3.622071e-01 -5.920744e-02 -4.775835e-02
1.142667e+11 1.785542e-02 -6.148409e-02 9.251794e-01 -3.607342e-01 9.256587e-01 -3.626126e-01 -5.934428e-02 -4.776743e-02
1.144000e+11 1.788291e-02 -6.157820e-02 9.250115e-01 -3.611366e-01 9.254921e-01 -3.630181e-01 -5.948123e-02 -4.777635e-02
1.145333e+11 1.791041e-02 -6.167239e-02 9.248435e-01 -3.615389e-01 9.253252e-01 -3.634236e-01 -5.961829e-02 -4.778511e-02
1.146667e+11 1.793791e-02 -6.176664e-02 9.246753e-01 -3.619412e-01 9.251582e-01 -3.638290e-01 -5.975548e-02 -4.779372e-02
1.148000e+11 1.796541e-02 -6.186096e-02 9.245068e-01 -3.623434e-01 9.249909e-01 -3.642343e-01 -5.989279e-02 -4.780216e-02
1.149333e+11 1.799292e-02 -6.195535e-02 9.243382e-01 -3.627456e-01 9.248234e-01 -3.646395e-01 -6.003021e-02 -4.781044e-02
1.150667e+11 1.802043e-02 -6.204981e-02 9.241694e-01 -3.631477e-01 9.246558e-01 -3.650447e-01 -6.016775e-02 -4.781856e-02
1.152000e+11 1.804793e-02 -6.214435e-02 9.240004e-01 -3.635497e-01 9.244879e-01 -3.654498e-01 -6.030541e-02 -4.782652e-02
1.153333e+11 1.807544e-02 -6.223895e-02 9.238311e-01 -3.639517e-01 9.243198e-01 -3.658549e-01 -6.044319e-02 -4.783432e-02
1.154667e+11 1.810296e-02 -6.233362e-02 9.236617e-01 -3.643536e-01 9.241515e-01 -3.662599e-01 -6.058108e-02 -4.784196e-02
1.156000e+11 1.813047e-02 -6.242837e-02 9.234921e-01 -3.647554e-01 9.239830e-01 -3.666648e-01 -6.071909e-02 -4.784944e-02
1.157333e+11 1.815798e-02 -6.252318e-02 9.233223e-01 -3.651572e-01 9.238143e-01 -3.670697e-01 -6.085722e-02 -4.785675e-02
1.158667e+11 1.818550e-02 -6.261807e-02 9.231523e-01 -3.655589e-01 9.236454e-01 -3.674745e-01 -6.099547e-02 -4.786391e-02
1.160000e+11 1.821302e-02 -6.271302e-02 9.229820e-01 -3.659606e-01 9.234763e-01 -3.678793e-01 -6.113383e-02 -4.787090e-02
1.161333e+11 1.824054e-02 -6.280805e-02 9.228116e-01 -3.663622e-01 9.233070e-01 -3.682839e-01 -6.127231e-02 -4.787773e-02
1.162667e+11 1.826806e-02 -6.290315e-02 9.226410e-01 -3.667637e-01 9.231375e-01 -3.686886e-01 -6.141091e-02 -4.788440e-02
1.164000e+11 1.829558e-02 -6.299832e-02 9.224702e-01 -3.671652e-01 9.229678e-01 -3.690931e-01 -6.154962e-02 -4.789090e-02
1.165333e+11 1.832311e-02 -6.309356e-02 9.222992e-01 -3.675666e-01 9.227979e-01 -3.694976e-01 -6.168846e-02 -4.789724e-02
1.166667e+11 1.835063e-02 -6.318887e-02 9.221280e-01 -3.679679e-01 9.226277e-01 -3.699020e-01 -6.182740e-02 -4.790342e-02
1.168000e+11 1.837816e-02 -6.328425e-02 9.219565e-01 -3.683692e-01 9.224574e-01 -3.703064e-01 -6.196647e-02 -4.790944e-02
1.169333e+11 1.840568e-02 -6.337970e-02 9.217849e-01 -3.687704e-01 9.222868e-01 -3.707107e-01 -6.210565e-02 -4.791529e-02
1.170667e+11 1.843321e-02 -6.347522e-02 9.216131e-01 -3.691716e-01 9.221161e-01 -3.711149e-01 -6.224494e-02 -4.792098e-02
1.172000e+11 1.846074e-02 -6.357082e-02 9.214411e-01 -3.695727e-01 9.219451e-01 -3.715190e-01 -6.238436e-02 -4.792651e-02
1.173333e+11 1.848827e-02 -6.366648e-02 9.212689e-01 -3.699737e-01 9.217740e-01 -3.719231e-01 -6.252388e-02 -4.793187e-02
1.174667e+11 1.851580e-02 -6.376222e-02 9.210965e-01 -3.703747e-01 9.216026e-01 -3.723272e-01 -6.266353e-02 -4.793706e-02
1.176000e+11 1.854333e-02 -6.385803e-02 9.209239e-01 -3.707756e-01 9.214310e-01 -3.727311e-01 -6.280329e-02 -4.794210e-02
1.177333e+11 1.857086e-02 -6.395390e-02 9.207510e-01 -3.711764e-01 9.212593e-01 -3.731350e-01 -6.294316e-02 -4.794697e-02
1.178667e+11 1.859839e-02 -6.404985e-02 9.205780e-01 -3.715772e-01 9.210873e-01 -3.735388e-01 -6.308315e-02 -4.795167e-02
1.180000e+11 1.862593e-02 -6.414587e-02 9.204048e-01 -3.719779e-01 9.209151e-01 -3.739426e-01 -6.322326e-02 -4.795621e-02
1.181333e+11 1.865346e-02 -6.424197e-02 9.202314e-01 -3.723786e-01 9.207427e-01 -3.743463e-01 -6.336348e-02 -4.796058e-02
1.182667e+11 1.868099e-02 -6.433813e-02 9.200578e-01 -3.727792e-01 9.205701e-01 -3.747499e-01 -6.350381e-02 -4.796479e-02
1.184000e+11 1.870853e-02 -6.443436e-02 9.198840e-01 -3.731797e-01 9.203973e-01 -3.751534e-01 -6.364426e-02 -4.796883e-02
1.185333e+11 1.873606e-02 -6.453067e-02 9.197099e-01 -3.735802e-01 9.202243e-01 -3.755569e-01 -6.378483e-02 -4.797271e-02
1.186667e+11 1.876360e-02 -6.462705e-02 9.195357e-01 -3.739806e-01 9.200511e-01 -3.759603e-01 -6.392550e-02 -4.797642e-02
1.188000e+11 1.879113e-02 -6.472350e-02 9.193613e-01 -3.743809e-01 9.198777e-01 -3.763637e-01 -6.406630e-02 -4.797996e-02
1.189333e+11 1.881867e-02 -6.482002e-02 9.191867e-01 -3.747812e-01 9.197040e-01 -3.767669e-01 -6.420721e-02 -4.798334e-02
1.190667e+11 1.884620e-02 -6.491661e-02 9.190119e-01 -3.751814e-01 9.195302e-01 -3.771702e-01 -6.434823e-02 -4.798655e-02
1.192000e+11 1.887374e-02 -6.501327e-02 9.188368e-01 -3.755815e-01 9.193562e-01 -3.775733e-01 -6.448936e-02 -4.798960e-02
1.193333e+11 1.890127e-02 -6.511001e-02 9.186616e-01 -3.759816e-01 9.191819e-01 -3.779764e-01 -6.463061e-02 -4.799248e-02
1.194667e+11 1.892881e-02 -6.520682e-02 9.184862e-01 -3.763816e-01 9.190075e-01 -3.783793e-01 -6.477197e-02 -4.799519e-02
1.196000e+11 1.895634e-02 -6.530369e-02 9.183105e-01 -3.767815e-01 9.188328e-01 -3.787823e-01 -6.491345e-02 -4.799773e-02
1.197333e+11 1.898388e-02 -6.540064e-02 9.181347e-01 -3.771814e-01 9.186580e-01 -3.791851e-01 -6.505504e-02 -4.800010e-02
1.198667e+11 1.901141e-02 -6.549767e-02 9.179587e-01 -3.775813e-01 9.184829e-01 -3.795879e-01 -6.519674e-02 -4.800231e-02
1.200000e+11 1.903894e-02 -6.559476e-02 9.177824e-01 -3.779810e-01 9.183077e-01 -3.799906e-01 -6.533855e-02 -4.800435e-02
1.201333e+11 1.906648e-02 -6.569193e-02 9.176060e-01 -3.783807e-01 9.181322e-01 -3.803933e-01 -6.548048e-02 -4.800622e-02
1.202667e+11 1.909401e-02 -6.578917e-02 9.174293e-01 -3.787803e-01 9.179565e-01 -3.807958e-01 -6.562252e-02 -4.800793e-02
1.204000e+11 1.912155e-02 -6.588648e-02 9.172525e-01 -3.791799e-01 9.177807e-01 -3.811983e-01 -6.576468e-02 -4.800946e-02
1.205333e+11 1.914908e-02 -6.598386e-02 9.170755e-01 -3.795794e-01 9.176046e-01 -3.816008e-01 -6.590694e-02 -4.801083e-02
1.206667e+11 1.917661e-02 -6.608131e-02 9.168982e-01 -3.799788e-01 9.174283e-01 -3.820031e-01 -6.604932e-02 -4.801202e-02
1.208000e+11 1.920414e-02 -6.617884e-02 9.167208e-01 -3.803782e-01 9.172518e-01 -3.824054e-01 -6.619181e-02 -4.801305e-02
1.209333e+11 1.923167e-02 -6.627644e-02 9.165431e-01 -3.807775e-01 9.170751e-01 -3.828076e-01 -6.633441e-02 -4.801391e-02
1.210667e+11 1.925920e-02 -6.637411e-02 9.163652e-01 -3.811767e-01 9.168982e-01 -3.832097e-01 -6.647712e-02 -4.801460e-02
1.212000e+11 1.928673e-02 -6.647185e-02 9.161872e-01 -3.815759e-01 9.167211e-01 -3.836118e-01 -6.661995e-02 -4.801511e-02
1.213333e+11 1.931426e-02 -6.656967e-02 9.160089e-01 -3.819750e-01 9.165438e-01 -3.840138e-01 -6.676288e-02 -4.801546e-02
1.214667e+11 1.934179e-02 -6.666755e-02 9.158304e-01 -3.823740e-01 9.163663e-01 -3.844157e-01 -6.690593e-02 -4.801564e-02
1.216000e+11 1.936931e-02 -6.676551e-02 9.156518e-01 -3.827730e-01 9.161886e-01 -3.848176e-01 -6.704909e-02 -4.801565e-02
1.217333e+11 1.939684e-02 -6.686355e-02 9.154729e-01 -3.831719e-01 9.160107e-01 -3.852193e-01 -6.719236e-02 -4.801548e-02
1.218667e+11 1.942436e-02 -6.696165e-02 9.152938e-01 -3.835707e-01 9.158325e-01 -3.856210e-01 -6.733574e-02 -4.801515e-02
1.220000e+11 1.945189e-02 -6.705983e-02 9.151145e-01 -3.839695e-01 9.156542e-01 -3.860226e-01 -6.747923e-02 -4.801465e-02
1.221333e+11 1.947941e-02 -6.715808e-02 9.149350e-01 -3.843682e-01 9.154757e-01 -3.864242e-01 -6.762283e-02 -4.801397e-02
1.222667e+11 1.950693e-02 -6.725641e-02 9.147553e-01 -3.847668e-01 9.152970e-01 -3.868257e-01 -6.776654e-02 -4.801312e-02
1.224000e+11 1.953445e-02 -6.735480e-02 9.145754e-01 -3.851654e-01 9.151180e-01 -3.872271e-01 -6.791036e-02 -4.801210e-02
1.225333e+11 1.956197e-02 -6.745327e-02 9.143953e-01 -3.855639e-01 9.149389e-01 -3.876284e-01 -6.805429e-02 -4.801091e-02
1.226667e+11 1.958949e-02 -6.755181e-02 9.142150e-01 -3.859623e-01 9.147596e-01 -3.880296e-01 -6.819833e-02 -4.800955e-02
1.228000e+11 1.961700e-02 -6.765043e-02 9.140345e-01 -3.863607e-01 9.145800e-01 -3.884308e-01 -6.834248e-02 -4.800801e-02
1.229333e+11 1.964452e-02 -6.774912e-02 9.138538e-01 -3.867590e-01 9.144003e-01 -3.888319e-01 -6.848673e-02 -4.800630e-02
1.230667e+11 1.967203e-02 -6.784788e-02 9.136729e-01 -3.871572e-01 9.142203e-01 -3.892329e-01 -6.863110e-02 -4.800442e-02
1.232000e+11 1.969954e-02 -6.794671e-02 9.134918e-01 -3.875554e-01 9.140402e-01 -3.896339e-01 -6.877558e-02 -4.800237e-02
1.233333e+11 1.972705e-02 -6.804562e-02 9.133104e-01 -3.879535e-01 9.138598e-01 -3.900347e-01 -6.892016e-02 -4.800014e-02
1.234667e+11 1.975456e-02 -6.814460e-02 9.131289e-01 -3.883515e-01 9.136793e-01 -3.904355e-01 -6.906486e-02 -4.799774e-02
1.236000e+11 1.978207e-02 -6.824365e-02 9.129472e-01 -3.887495e-01 9.134985e-01 -3.908362e-01 -6.920966e-02 -4.799516e-02
1.237333e+11 1.980957e-02 -6.834278e-02 9.127652e-01 -3.891473e-01 9.133176e-01 -3.912369e-01 -6.935457e-02 -4.799242e-02
1.238667e+11 1.983707e-02 -6.844198e-02 9.125831e-01 -3.895452e-01 9.131364e-01 -3.916374e-01 -6.949959e-02 -4.798949e-02
1.240000e+11 1.986457e-02 -6.854125e-02 9.124007e-01 -3.899429e-01 9.129551e-01 -3.920379e-01 -6.964471e-02 -4.798640e-02
1.241333e+11 1.989207e-02 -6.864060e-02 9.122182e-01 -3.903406e-01 9.127735e-01 -3.924383e-01 -6.978995e-02 -4.798313e-02
1.242667e+11 1.991957e-02 -6.874002e-02 9.120354e-01 -3.907382e-01 9.125917e-01 -3.928387e-01 -6.993529e-02 -4.797968e-02
1.244000e+11 1.994706e-02 -6.883952e-02 9.118524e-01 -3.911358e-01 9.124098e-01 -3.932389e-01 -7.008074e-02 -4.797606e-02
1.245333e+11 1.997456e-02 -6.893909e-02 9.116693e-01 -3.915332e-01 9.122276e-01 -3.936391e-01 -7.022629e-02 -4.797227e-02
1.246667e+11 2.000205e-02 -6.903873e-02 9.114859e-01 -3.919306e-01 9.120453e-01 -3.940392e-01 -7.037195e-02 -4.796830e-02
1.248000e+11 2.002954e-02 -6.913844e-02 9.113023e-01 -3.923280e-01 9.118627e-01 -3.944392e-01 -7.051772e-02 -4.796416e-02
1.249333e+11 2.005702e-02 -6.923823e-02 9.111185e-01 -3.927252e-01 9.116799e-01 -3.948391e-01 -7.066360e-02 -4.795984e-02
1.250667e+11 2.008451e-02 -6.933810e-02 9.109345e-01 -3.931224e-01 9.114970e-01 -3.952390e-01 -7.080958e-02 -4.795534e-02
1.252000e+11 2.011199e-02 -6.943804e-02 9.107503e-01 -3.935195e-01 9.113138e-01 -3.956388e-01 -7.095567e-02 -4.795067e-02
1.253333e+11 2.013947e-02 -6.953805e-02 9.105659e-01 -3.939166e-01 9.111305e-01 -3.960385e-01 -7.110186e-02 -4.794582e-02
1.254667e+11 2.016694e-02 -6.963814e-02 9.103813e-01 -3.943136e-01 9.109469e-01 -3.964381e-01 -7.124816e-02 -4.794080e-02
1.256000e+11 2.019442e-02 -6.973830e-02 9.101964e-01 -3.947105e-01 9.107631e-01 -3.968377e-01 -7.139456e-02 -4.793560e-02
1.257333e+11 2.022189e-02 -6.983853e-02 9.100114e-01 -3.951073e-01 9.105792e-01 -3.972372e-01 -7.154107e-02 -4.793022e-02
1.258667e+11 2.024936e-02 -6.993884e-02 9.098262e-01 -3.955041e-01 9.103950e-01 -3.976366e-01 -7.168769e-02 -4.792466e-02
1.260000e+11 2.027682e-02 -7.003922e-02 9.096407e-01 -3.959008e-01 9.102107e-01 -3.980359e-01 -7.183441e-02 -4.791893e-02
1.261333e+11 2.030429e-02 -7.013968e-02 9.094551e-01 -3.962974e-01 9.100261e-01 -3.984351e-01 -7.198123e-02 -4.791303e-02
1.262667e+11 2.033175e-02 -7.024021e-02 9.092692e-01 -3.966939e-01 9.098413e-01 -3.988343e-01 -7.212816e-02 -4.790694e-02
1.264000e+11 2.035920e-02 -7.034082e-02 9.090832e-01 -3.970904e-01 9.096564e-01 -3.992333e-01 -7.227519e-02 -4.790068e-02
1.265333e+11 2.038666e-02 -7.044150e-02 9.088969e-01 -3.974868e-01 9.094712e-01 -3.996323e-01 -7.242233e-02 -4.789424e-02
1.266667e+11 2.041411e-02 -7.054226e-02 9.087104e-01 -3.978831e-01 9.092859e-01 -4.000312e-01 -7.256957e-02 -4.788762e-02
1.268000e+11 2.044156e-02 -7.064309e-02 9.085238e-01 -3.982794e-01 9.091003e-01 -4.004301e-01 -7.271692e-02 -4.788082e-02
1.269333e+11 2.046900e-02 -7.074400e-02 9.083369e-01 -3.986756e-01 9.089146e-01 -4.008288e-01 -7.286436e-02 -4.787385e-02
1.270667e+11 2.049645e-02 -7.084498e-02 9.081498e-01 -3.990717e-01 9.087286e-01 -4.012275e-01 -7.301191e-02 -4.786669e-02
1.272000e+11 2.052388e-02 -7.094604e-02 9.079625e-01 -3.994677e-01 9.085425e-01 -4.016261e-01 -7.315957e-02 -4.785936e-02
1.273333e+11 2.055132e-02 -7.104717e-02 9.077750e-01 -3.998637e-01 9.083562e-01 -4.020246e-01 -7.330732e-02 -4.785185e-02
1.274667e+11 2.057875e-02 -7.114837e-02 9.075873e-01 -4.002596e-01 9.081696e-01 -4.024231e-01 -7.345518e-02 -4.784416e-02
1.276000e+11 2.060618e-02 -7.124966e-02 9.073994e-01 -4.006554e-01 9.079829e-01 -4.028214e-01 -7.360314e-02 -4.783629e-02
1.277333e+11 2.063361e-02 -7.135101e-02 9.072112e-01 -4.010511e-01 9.077960e-01 -4.032197e-01 -7.375121e-02 -4.782824e-02
1.278667e+11 2.066103e-02 -7.145245e-02 9.070229e-01 -4.014468e-01 9.076088e-01 -4.036179e-01 -7.389937e-02 -4.782001e-02
1.280000e+11 2.068844e-02 -7.155396e-02 9.068344e-01 -4.018424e-01 9.074215e-01 -4.040160e-01 -7.404764e-02 -4.781160e-02
1.281333e+11 2.071586e-02 -7.165554e-02 9.066456e-01 -4.022379e-01 9.072340e-01 -4.044141e-01 -7.419601e-02 -4.780302e-02
1.282667e+11 2.074327e-02 -7.175720e-02 9.064567e-01 -4.026333e-01 9.070463e-01 -4.048120e-01 -7.434448e-02 -4.779425e-02
1.284000e+11 2.077068e-02 -7.185893e-02 9.062675e-01 -4.030287e-01 9.068584e-01 -4.052099e-01 -7.449305e-02 -4.778530e-02
1.285333e+11 2.079808e-02 -7.196075e-02 9.060781e-01 -4.034240e-01 9.066703e-01 -4.056077e-01 -7.464172e-02 -4.777617e-02
1.286667e+11 2.082548e-02 -7.206263e-02 9.058886e-01 -4.038192e-01 9.064820e-01 -4.060054e-01 -7.479049e-02 -4.776686e-02
1.288000e+11 2.085287e-02 -7.216459e-02 9.056988e-01 -4.042143e-01 9.062935e-01 -4.064030e-01 -7.493936e-02 -4.775737e-02
1.289333e+11 2.088026e-02 -7.226663e-02 9.055088e-01 -4.046094e-01 9.061048e-01 -4.068006e-01 -7.508834e-02 -4.774770e-02
1.290667e+11 2.090765e-02 -7.236875e-02 9.053186e-01 -4.050044e-01 9.059159e-01 -4.071981e-01 -7.523741e-02 -4.773785e-02
1.292000e+11 2.093503e-02 -7.247094e-02 9.051282e-01 -4.053993e-01 9.057268e-01 -4.075954e-01 -7.538658e-02 -4.772781e-02
1.293333e+11 2.096241e-02 -7.257321e-02 9.049376e-01 -4.057941e-01 9.055375e-01 -4.079928e-01 -7.553585e-02 -4.771760e-02
1.294667e+11 2.098978e-02 -7.267555e-02 9.047468e-01 -4.061888e-01 9.053480e-01 -4.083900e-01 -7.568522e-02 -4.770720e-02
1.296000e+11 2.101715e-02 -7.277797e-02 9.045557e-01 -4.065835e-01 9.051584e-01 -4.087871e-01 -7.583469e-02 -4.769662e-02
1.297333e+11 2.104452e-02 -7.288047e-02 9.043645e-01 -4.069781e-01 9.049685e-01 -4.091842e-01 -7.598426e-02 -4.768586e-02
1.298667e+11 2.107188e-02 -7.298304e-02 9.041731e-01 -4.073726e-01 9.047785e-01 -4.095812e-01 -7.613393e-02 -4.767492e-02
1.300000e+11 2.109923e-02 -7.308569e-02 9.039814e-01 -4.077671e-01 9.045882e-01 -4.099781e-01 -7.628369e-02 -4.766380e-02
1.301333e+11 2.112658e-02 -7.318841e-02 9.037896e-01 -4.081614e-01 9.043978e-01 -4.103749e-01 -7.643355e-02 -4.765249e-02
1.302667e+11 2.115393e-02 -7.329122e-02 9.035975e-01 -4.085557e-01 9.042071e-01 -4.107717e-01 -7.658352e-02 -4.764100e-02
1.304000e+11 2.118127e-02 -7.339410e-02 9.034052e-01 -4.089499e-01 9.040163e-01 -4.111683e-01 -7.673357e-02 -4.762933e-02
1.305333e+11 2.120860e-02 -7.349705e-02 9.032128e-01 -4.093440e-01 9.038253e-01 -4.115649e-01 -7.688373e-02 -4.761747e-02
1.306667e+11 2.123593e-02 -7.360009e-02 9.030201e-01 -4.097381e-01 9.036341e-01 -4.119614e-01 -7.703398e-02 -4.760543e-02
1.308000e+11 2.126326e-02 -7.370320e-02 9.028272e-01 -4.101320e-01 9.034427e-01 -4.123578e-01 -7.718433e-02 -4.759321e-02
1.309333e+11 2.129058e-02 -7.380639e-02 9.026341e-01 -4.105259e-01 9.032511e-01 -4.127541e-01 -7.733478e-02 -4.758081e-02
1.310667e+11 2.131790e-02 -7.390965e-02 9.024408e-01 -4.109197e-01 9.030593e-01 -4.131504e-01 -7.748532e-02 -4.756822e-02
1.312000e+11 2.134521e-02 -7.401299e-02 9.022473e-01 -4.113134e-01 9.028673e-01 -4.135466e-01 -7.763596e-02 -4.755545e-02
1.313333e+11 2.137251e-02 -7.411641e-02 9.020536e-01 -4.117071e-01 9.026751e-01 -4.139427e-01 -7.778670e-02 -4.754249e-02
1.314667e+11 2.139981e-02 -7.421991e-02 9.018597e-01 -4.121006e-01 9.024827e-01 -4.143387e-01 -7.793753e-02 -4.752935e-02
1.316000e+11 2.142710e-02 -7.432349e-02 9.016655e-01 -4.124941e-01 9.022902e-01 -4.147346e-01 -7.808845e-02 -4.751603e-02
1.317333e+11 2.145439e-02 -7.442714e-02 9.014712e-01 -4.128875e-01 9.020974e-01 -4.151305e-01 -7.823948e-02 -4.750252e-02
1.318667e+11 2.148167e-02 -7.453087e-02 9.012767e-01 -4.132808e-01 9.019045e-01 -4.155262e-01 -7.839059e-02 -4.748882e-02
1.320000e+11 2.150895e-02 -7.463468e-02 9.010819e-01 -4.136740e-01 9.017113e-01 -4.159219e-01 -7.854180e-02 -4.747495e-02
1.321333e+11 2.153622e-02 -7.473856e-02 9.008870e-01 -4.140672e-01 9.015180e-01 -4.163175e-01 -7.869311e-02 -4.746089e-02
1.322667e+11 2.156348e-02 -7.484252e-02 9.006918e-01 -4.144602e-01 9.013245e-01 -4.167130e-01 -7.884451e-02 -4.744664e-02
1.324000e+11 2.159074e-02 -7.494657e-02 9.004964e-01 -4.148532e-01 9.011308e-01 -4.171085e-01 -7.899601e-02 -4.743221e-02
1.325333e+11 2.161799e-02 -7.505069e-02 9.003009e-01 -4.152461e-01 9.009369e-01 -4.175039e-01 -7.914759e-02 -4.741759e-02
1.326667e+11 2.164524e-02 -7.515488e-02 9.001051e-01 -4.156389e-01 9.007428e-01 -4.178991e-01 -7.929928e-02 -4.740279e-02
1.328000e+11 2.167248e-02 -7.525916e-02 8.999091e-01 -4.160317e-01 9.005485e-01 -4.182943e-01 -7.945105e-02 -4.738780e-02
1.329333e+11 2.169971e-02 -7.536351e-02 8.997129e-01 -4.164243e-01 9.003540e-01 -4.186895e-01 -7.960292e-02 -4.737263e-02
1.330667e+11 2.172694e-02 -7.546795e-02 8.995165e-01 -4.168169e-01 9.001593e-01 -4.190845e-01 -7.975488e-02 -4.735727e-02
1.332000e+11 2.175416e-02 -7.557246e-02 8.993199e-01 -4.172094e-01 8.999645e-01 -4.194795e-01 -7.990693e-02 -4.734173e-02
1.333333e+11 2.178137e-02 -7.567705e-02 8.991231e-01 -4.176018e-01 8.997694e-01 -4.198743e-01 -8.005908e-02 -4.732600e-02
1.334667e+11 2.180857e-02 -7.578171e-02 8.989261e-01 -4.179941e-01 8.995742e-01 -4.202691e-01 -8.021132e-02 -4.731008e-02
1.336000e+11 2.183577e-02 -7.588646e-02 8.987289e-01 -4.183863e-01 8.993788e-01 -4.206639e-01 -8.036365e-02 -4.729398e-02
1.337333e+11 2.186297e-02 -7.599129e-02 8.985314e-01 -4.187785e-01 8.991831e-01 -4.210585e-01 -8.051607e-02 -4.727769e-02
1.338667e+11 2.189015e-02 -7.609619e-02 8.983338e-01 -4.191705e-01 8.989873e-01 -4.214531e-01 -8.066859e-02 -4.726121e-02
1.340000e+11 2.191733e-02 -7.620117e-02 8.981360e-01 -4.195625e-01 8.987913e-01 -4.218475e-01 -8.082119e-02 -4.724455e-02
1.341333e+11 2.194450e-02 -7.630624e-02 8.979379e-01 -4.199544e-01 8.985952e-01 -4.222419e-01 -8.097389e-02 -4.722771e-02
1.342667e+11 2.197166e-02 -7.641138e-02 8.977397e-01 -4.203462e-01 8.983988e-01 -4.226362e-01 -8.112667e-02 -4.721067e-02
1.344000e+11 2.199882e-02 -7.651660e-02 8.975412e-01 -4.207379e-01 8.982022e-01 -4.230305e-01 -8.127955e-02 -4.719345e-02
1.345333e+11 2.202597e-02 -7.662190e-02 8.973426e-01 -4.211295e-01 8.980054e-01 -4.234246e-01 -8.143252e-02 -4.717604e-02
1.346667e+11 2.205311e-02 -7.672728e-02 8.971437e-01 -4.215211e-01 8.978085e-01 -4.238187e-01 -8.158557e-02 -4.715844e-02
1.348000e+11 2.208024e-02 -7.683274e-02 8.969446e-01 -4.219125e-01 8.976114e-01 -4.242127e-01 -8.173872e-02 -4.714066e-02
1.349333e+11 2.210737e-02 -7.693827e-02 8.967454e-01 -4.223039e-01 8.974140e-01 -4.246066e-01 -8.189196e-02 -4.712269e-02
1.350667e+11 2.213448e-02 -7.704389e-02 8.965459e-01 -4.226952e-01 8.972165e-01 -4.250005e-01 -8.204528e-02 -4.710453e-02
1.352000e+11 2.216159e-02 -7.714959e-02 8.963462e-01 -4.230864e-01 8.970188e-01 -4.253942e-01 -8.219870e-02 -4.708619e-02
1.353333e+11 2.218869e-02 -7.725537e-02 8.961463e-01 -4.234775e-01 8.968209e-01 -4.257879e-01 -8.235220e-02 -4.706765e-02
1.354667e+11 2.221579e-02 -7.736122e-02 8.959462e-01 -4.238685e-01 8.966228e-01 -4.261815e-01 -8.250579e-02 -4.704893e-02
1.356000e+11 2.224287e-02 -7.746716e-02 8.957459e-01 -4.242594e-01 8.964246e-01 -4.265750e-01 -8.265947e-02 -4.703002e-02
1.357333e+11 2.226995e-02 -7.757317e-02 8.955454e-01 -4.246503e-01 8.962261e-01 -4.269684e-01 -8.281324e-02 -4.701093e-02
1.358667e+11 2.229701e-02 -7.767927e-02 8.953447e-01 -4.250410e-01 8.960275e-01 -4.273618e-01 -8.296710e-02 -4.699164e-02
1.360000e+11 2.232407e-02 -7.778545e-02 8.951438e-01 -4.254317e-01 8.958286e-01 -4.277551e-01 -8.312104e-02 -4.697217e-02
1.361333e+11 2.235112e-02 -7.789170e-02 8.949427e-01 -4.258223e-01 8.956296e-01 -4.281483e-01 -8.327507e-02 -4.695251e-02
1.362667e+11 2.237816e-02 -7.799804e-02 8.947414e-01 -4.262127e-01 8.954304e-01 -4.285414e-01 -8.342919e-02 -4.693266e-02
1.364000e+11 2.240519e-02 -7.810446e-02 8.945399e-01 -4.266031e-01 8.952310e-01 -4.289344e-01 -8.358339e-02 -4.691262e-02
1.365333e+11 2.243222e-02 -7.821095e-02 8.943381e-01 -4.269934e-01 8.950314e-01 -4.293274e-01 -8.373769e-02 -4.689239e-02
1.366667e+11 2.245923e-02 -7.831753e-02 8.941362e-01 -4.273837e-01 8.948316e-01 -4.297203e-01 -8.389206e-02 -4.687198e-02
1.368000e+11 2.248623e-02 -7.842419e-02 8.939341e-01 -4.277738e-01 8.946316e-01 -4.301131e-01 -8.404653e-02 -4.685137e-02
1.369333e+11 2.251323e-02 -7.853092e-02 8.937317e-01 -4.281638e-01 8.944315e-01 -4.305058e-01 -8.420108e-02 -4.683058e-02
1.370667e+11 2.254021e-02 -7.863774e-02 8.935292e-01 -4.285538e-01 8.942311e-01 -4.308984e-01 -8.435571e-02 -4.680960e-02
1.372000e+11 2.256719e-02 -7.874464e-02 8.933265e-01 -4.289436e-01 8.940306e-01 -4.312910e-01 -8.451044e-02 -4.678843e-02
1.373333e+11 2.259416e-02 -7.885162e-02 8.931235e-01 -4.293334e-01 8.938298e-01 -4.316835e-01 -8.466524e-02 -4.676706e-02
1.374667e+11 2.262111e-02 -7.895868e-02 8.929204e-01 -4.297231e-01 8.936289e-01 -4.320759e-01 -8.482013e-02 -4.674551e-02
1.376000e+11 2.264806e-02 -7.906583e-02 8.927170e-01 -4.301127e-01 8.934278e-01 -4.324682e-01 -8.497511e-02 -4.672377e-02
1.377333e+11 2.267499e-02 -7.917305e-02 8.925135e-01 -4.305022e-01 8.932265e-01 -4.328605e-01 -8.513017e-02 -4.670185e-02
1.378667e+11 2.270192e-02 -7.928035e-02 8.923097e-01 -4.308916e-01 8.930251e-01 -4.332527e-01 -8.528532e-02 -4.667973e-02
1.380000e+11 2.272883e-02 -7.938774e-02 8.921058e-01 -4.312809e-01 8.928234e-01 -4.336448e-01 -8.544055e-02 -4.665742e-02
1.381333e+11 2.275574e-02 -7.949520e-02 8.919016e-01 -4.316701e-01 8.926215e-01 -4.340368e-01 -8.559586e-02 -4.663492e-02
1.382667e+11 2.278263e-02 -7.960275e-02 8.916973e-01 -4.320592e-01 8.924195e-01 -4.344287e-01 -8.575125e-02 -4.661223e-02
1.384000e+11 2.280951e-02 -7.971038e-02 8.914927e-01 -4.324482e-01 8.922172e-01 -4.348206e-01 -8.590673e-02 -4.658936e-02
1.385333e+11 2.283639e-02 -7.981808e-02 8.912879e-01 -4.328372e-01 8.920148e-01 -4.352124e-01 -8.606230e-02 -4.656629e-02
1.386667e+11 2.286325e-02 -7.992588e-02 8.910830e-01 -4.332260e-01 8.918122e-01 -4.356041e-01 -8.621794e-02 -4.654303e-02
1.388000e+11 2.289010e-02 -8.003375e-02 8.908778e-01 -4.336148e-01 8.916094e-01 -4.359957e-01 -8.637367e-02 -4.651958e-02
1.389333e+11 2.291694e-02 -8.014170e-02 8.906724e-01 -4.340034e-01 8.914064e-01 -4.363872e-01 -8.652948e-02 -4.649595e-02
1.390667e+11 2.294376e-02 -8.024974e-02 8.904669e-01 -4.343920e-01 8.912032e-01 -4.367787e-01 -8.668538e-02 -4.647212e-02
1.392000e+11 2.297058e-02 -8.035785e-02 8.902611e-01 -4.347805e-01 8.909999e-01 -4.371701e-01 -8.684135e-02 -4.644810e-02
1.393333e+11 2.299739e-02 -8.046605e-02 8.900551e-01 -4.351689e-01 8.907963e-01 -4.375614e-01 -8.699741e-02 -4.642389e-02
1.394667e+11 2.302418e-02 -8.057433e-02 8.898490e-01 -4.355572e-01 8.905925e-01 -4.379527e-01 -8.715354e-02 -4.639949e-02
1.396000e+11 2.305096e-02 -8.068269e-02 8.896426e-01 -4.359454e-01 8.903886e-01 -4.383438e-01 -8.730976e-02 -4.637490e-02
1.397333e+11 2.307773e-02 -8.079113e-02 8.894360e-01 -4.363335e-01 8.901845e-01 -4.387349e-01 -8.746606e-02 -4.635012e-02
1.398667e+11 2.310449e-02 -8.089966e-02 8.892293e-01 -4.367215e-01 8.899802e-01 -4.391259e-01 -8.762245e-02 -4.632515e-02
1.400000e+11 2.313123e-02 -8.100827e-02 8.890223e-01 -4.371094e-01 8.897757e-01 -4.395168e-01 -8.777891e-02 -4.629998e-02
1.401333e+11 2.315796e-02 -8.111696e-02 8.888151e-01 -4.374972e-01 8.895710e-01 -4.399077e-01 -8.793545e-02 -4.627463e-02
1.402667e+11 2.318468e-02 -8.122573e-02 8.886078e-01 -4.378849e-01 8.893661e-01 -4.402985e-01 -8.809207e-02 -4.624909e-02
1.404000e+11 2.321139e-02 -8.133458e-02 8.884002e-01 -4.382726e-01 8.891610e-01 -4.406892e-01 -8.824877e-02 -4.622335e-02
1.405333e+11 2.323808e-02 -8.144351e-02 8.881925e-01 -4.386601e-01 8.889557e-01 -4.410798e-01 -8.840556e-02 -4.619742e-02
1.406667e+11 2.326477e-02 -8.155253e-02 8.879845e-01 -4.390475e-01 8.887503e-01 -4.414703e-01 -8.856242e-02 -4.617131e-02
1.408000e+11 2.329143e-02 -8.166163e-02 8.877763e-01 -4.394349e-01 8.885446e-01 -4.418608e-01 -8.871936e-02 -4.614500e-02
1.409333e+11 2.331809e-02 -8.177081e-02 8.875680e-01 -4.398221e-01 8.883388e-01 -4.422512e-01 -8.887638e-02 -4.611850e-02
1.410667e+11 2.334473e-02 -8.188008e-02 8.873594e-01 -4.402093e-01 8.881328e-01 -4.426415e-01 -8.903348e-02 -4.609181e-02
1.412000e+11 2.337136e-02 -8.198942e-02 8.871507e-01 -4.405963e-01 8.879266e-01 -4.430318e-01 -8.919065e-02 -4.606492e-02
1.413333e+11 2.339798e-02 -8.209885e-02 8.869417e-01 -4.409833e-01 8.877202e-01 -4.434219e-01 -8.934791e-02 -4.603785e-02
1.414667e+11 2.342458e-02 -8.220836e-02 8.867325e-01 -4.413702e-01 8.875136e-01 -4.438120e-01 -8.950524e-02 -4.601058e-02
1.416000e+11 2.345117e-02 -8.231796e-02 8.865232e-01 -4.417570e-01 8.873068e-01 -4.442020e-01 -8.966265e-02 -4.598312e-02
1.417333e+11 2.347774e-02 -8.242763e-02 8.863136e-01 -4.421436e-01 8.870998e-01 -4.445919e-01 -8.982014e-02 -4.595548e-02
1.418667e+11 2.350430e-02 -8.253739e-02 8.861039e-01 -4.425302e-01 8.868926e-01 -4.449818e-01 -8.997771e-02 -4.592763e-02
1.420000e+11 2.353085e-02 -8.264723e-02 8.858940e-01 -4.429167e-01 8.866853e-01 -4.453716e-01 -9.013535e-02 -4.589960e-02
1.421333e+11 2.355738e-02 -8.275715e-02 8.856838e-01 -4.433031e-01 8.864777e-01 -4.457613e-01 -9.029307e-02 -4.587138e-02
1.422667e+11 2.358389e-02 -8.286716e-02 8.854735e-01 -4.436894e-01 8.862700e-01 -4.461509e-01 -9.045087e-02 -4.584296e-02
1.424000e+11 2.361040e-02 -8.297725e-02 8.852629e-01 -4.440756e-01 8.860620e-01 -4.465404e-01 -9.060875e-02 -4.581435e-02
1.425333e+11 2.363688e-02 -8.308742e-02 8.850522e-01 -4.444617e-01 8.858539e-01 -4.469299e-01 -9.076670e-02 -4.578555e-02
1.426667e+11 2.366336e-02 -8.319768e-02 8.848413e-01 -4.448477e-01 8.856456e-01 -4.473193e-01 -9.092472e-02 -4.575656e-02
1.428000e+11 2.368982e-02 -8.330801e-02 8.846302e-01 -4.452336e-01 8.854371e-01 -4.477086e-01 -9.108283e-02 -4.572737e-02
1.429333e+11 2.371626e-02 -8.341843e-02 8.844189e-01 -4.456194e-01 8.852284e-01 -4.480979e-01 -9.124101e-02 -4.569800e-02
1.430667e+11 2.374269e-02 -8.352894e-02 8.842073e-01 -4.460051e-01 8.850195e-01 -4.484870e-01 -9.139926e-02 -4.566843e-02
1.432000e+11 2.376910e-02 -8.363952e-02 8.839956e-01 -4.463907e-01 8.848104e-01 -4.488761e-01 -9.155759e-02 -4.563866e-02
1.433333e+11 2.379549e-02 -8.375019e-02 8.837837e-01 -4.467762e-01 8.846011e-01 -4.492651e-01 -9.171600e-02 -4.560871e-02
1.434667e+11 2.382187e-02 -8.386094e-02 8.835716e-01 -4.471617e-01 8.843917e-01 -4.496541e-01 -9.187448e-02 -4.557856e-02
1.436000e+11 2.384824e-02 -8.397178e-02 8.833593e-01 -4.475470e-01 8.841820e-01 -4.500429e-01 -9.203303e-02 -4.554823e-02
1.437333e+11 2.387459e-02 -8.408269e-02 8.831468e-01 -4.479322e-01 8.839722e-01 -4.504317e-01 -9.219166e-02 -4.551769e-02
1.438667e+11 2.390092e-02 -8.419369e-02 8.829342e-01 -4.483173e-01 8.837621e-01 -4.508204e-01 -9.235037e-02 -4.548697e-02
1.440000e+11 2.392724e-02 -8.430478e-02 8.827213e-01 -4.487024e-01 8.835519e-01 -4.512091e-01 -9.250915e-02 -4.545605e-02
1.441333e+11 2.395354e-02 -8.441594e-02 8.825082e-01 -4.490873e-01 8.833414e-01 -4.515976e-01 -9.266800e-02 -4.542494e-02
1.442667e+11 2.397982e-02 -8.452719e-02 8.822949e-01 -4.494721e-01 8.831308e-01 -4.519861e-01 -9.282693e-02 -4.539364e-02
1.444000e+11 2.400609e-02 -8.463853e-02 8.820815e-01 -4.498569e-01 8.829200e-01 -4.523745e-01 -9.298593e-02 -4.536215e-02
1.445333e+11 2.403234e-02 -8.474994e-02 8.818678e-01 -4.502415e-01 8.827090e-01 -4.527628e-01 -9.314500e-02 -4.533046e-02
1.446667e+11 2.405857e-02 -8.486144e-02 8.816540e-01 -4.506260e-01 8.824977e-01 -4.531511e-01 -9.330415e-02 -4.529858e-02
1.448000e+11 2.408478e-02 -8.497302e-02 8.814399e-01 -4.510105e-01 8.822863e-01 -4.535392e-01 -9.346337e-02 -4.526651e-02
1.449333e+11 2.411098e-02 -8.508469e-02 8.812257e-01 -4.513948e-01 8.820747e-01 -4.539273e-01 -9.362266e-02 -4.523424e-02
1.450667e+11 2.413716e-02 -8.519644e-02 8.810112e-01 -4.517791e-01 8.818629e-01 -4.543153e-01 -9.378203e-02 -4.520178e-02
1.452000e+11 2.416333e-02 -8.530827e-02 8.807966e-01 -4.521632e-01 8.816510e-01 -4.547033e-01 -9.394146e-02 -4.516913e-02
1.453333e+11 2.418947e-02 -8.542018e-02 8.805818e-01 -4.525473e-01 8.814388e-01 -4.550911e-01 -9.410097e-02 -4.513628e-02
1.454667e+11 2.421560e-02 -8.553218e-02 8.803668e-01 -4.529312e-01 8.812264e-01 -4.554789e-01 -9.426056e-02 -4.510324e-02
1.456000e+11 2.424171e-02 -8.564426e-02 8.801516e-01 -4.533151e-01 8.810138e-01 -4.558666e-01 -9.442021e-02 -4.507001e-02
1.457333e+11 2.426780e-02 -8.575643e-02 8.799362e-01 -4.536989e-01 8.808010e-01 -4.562543e-01 -9.457994e-02 -4.503658e-02
1.458667e+11 2.429387e-02 -8.586867e-02 8.797206e-01 -4.540825e-01 8.805881e-01 -4.566418e-01 -9.473973e-02 -4.500297e-02
1.460000e+11 2.431993e-02 -8.598100e-02 8.795048e-01 -4.544661e-01 8.803749e-01 -4.570293e-01 -9.489960e-02 -4.496915e-02
1.461333e+11 2.434597e-02 -8.609342e-02 8.792889e-01 -4.548495e-01 8.801615e-01 -4.574167e-01 -9.505954e-02 -4.493515e-02
1.462667e+11 2.437198e-02 -8.620592e-02 8.790727e-01 -4.552329e-01 8.799480e-01 -4.578040e-01 -9.521956e-02 -4.490095e-02
1.464000e+11 2.439798e-02 -8.631850e-02 8.788563e-01 -4.556162e-01 8.797342e-01 -4.581912e-01 -9.537964e-02 -4.486656e-02
1.465333e+11 2.442396e-02 -8.643116e-02 8.786398e-01 -4.559993e-01 8.795203e-01 -4.585784e-01 -9.553979e-02 -4.483197e-02
1.466667e+11 2.444992e-02 -8.654391e-02 8.784230e-01 -4.563824e-01 8.793061e-01 -4.589655e-01 -9.570001e-02 -4.479719e-02
1.468000e+11 2.447587e-02 -8.665674e-02 8.782061e-01 -4.567654e-01 8.790918e-01 -4.593525e-01 -9.586031e-02 -4.476222e-02
1.469333e+11 2.450179e-02 -8.676965e-02 8.779890e-01 -4.571482e-01 8.788772e-01 -4.597394e-01 -9.602067e-02 -4.472705e-02
1.470667e+11 2.452769e-02 -8.688265e-02 8.777717e-01 -4.575310e-01 8.786625e-01 -4.601263e-01 -9.618111e-02 -4.469169e-02
1.472000e+11 2.455357e-02 -8.699573e-02 8.775542e-01 -4.579137e-01 8.784476e-01 -4.605131e-01 -9.634161e-02 -4.465613e-02
1.473333e+11 2.457944e-02 -8.710889e-02 8.773365e-01 -4.582963e-01 8.782324e-01 -4.608997e-01 -9.650218e-02 -4.462038e-02
1.474667e+11 2.460528e-02 -8.722214e-02 8.771186e-01 -4.586787e-01 8.780171e-01 -4.612864e-01 -9.666283e-02 -4.458444e-02
1.476000e+11 2.463110e-02 -8.733547e-02 8.769005e-01 -4.590611e-01 8.778015e-01 -4.616729e-01 -9.682354e-02 -4.454830e-02
1.477333e+11 2.465691e-02 -8.744888e-02 8.766823e-01 -4.594434e-01 8.775858e-01 -4.620594e-01 -9.698432e-02 -4.451197e-02
1.478667e+11 2.468269e-02 -8.756238e-02 8.764638e-01 -4.598256e-01 8.773699e-01 -4.624457e-01 -9.714517e-02 -4.447545e-02
1.480000e+11 2.470845e-02 -8.767596e-02 8.762451e-01 -4.602077e-01 8.771537e-01 -4.628320e-01 -9.730609e-02 -4.443873e-02
1.481333e+11 2.473419e-02 -8.778962e-02 8.760263e-01 -4.605896e-01 8.769374e-01 -4.632182e-01 -9.746708e-02 -4.440181e-02
1.482667e+11 2.475991e-02 -8.790337e-02 8.758073e-01 -4.609715e-01 8.767209e-01 -4.636044e-01 -9.762813e-02 -4.436471e-02
1.484000e+11 2.478561e-02 -8.801720e-02 8.755881e-01 -4.613533e-01 8.765041e-01 -4.639904e-01 -9.778926e-02 -4.432740e-02
1.485333e+11 2.481129e-02 -8.813111e-02 8.753687e-01 -4.617350e-01 8.762872e-01 -4.643764e-01 -9.795045e-02 -4.428991e-02
1.486667e+11 2.483695e-02 -8.824511e-02 8.751491e-01 -4.621166e-01 8.760701e-01 -4.647623e-01 -9.811171e-02 -4.425222e-02
1.488000e+11 2.486258e-02 -8.835919e-02 8.749293e-01 -4.624981e-01 8.758527e-01 -4.651481e-01 -9.827304e-02 -4.421433e-02
1.489333e+11 2.488820e-02 -8.847335e-02 8.747093e-01 -4.628795e-01 8.756352e-01 -4.655339e-01 -9.843443e-02 -4.417625e-02
1.490667e+11 2.491379e-02 -8.858760e-02 8.744891e-01 -4.632608e-01 8.754175e-01 -4.659195e-01 -9.859590e-02 -4.413798e-02
1.492000e+11 2.493936e-02 -8.870192e-02 8.742688e-01 -4.636420e-01 8.751995e-01 -4.663051e-01 -9.875743e-02 -4.409951e-02
1.493333e+11 2.496491e-02 -8.881634e-02 8.740482e-01 -4.640231e-01 8.749814e-01 -4.666906e-01 -9.891903e-02 -4.406084e-02
1.494667e+11 2.499044e-02 -8.893083e-02 8.738275e-01 -4.644041e-01 8.747631e-01 -4.670760e-01 -9.908069e-02 -4.402198e-02
1.496000e+11 2.501594e-02 -8.904541e-02 8.736066e-01 -4.647850e-01 8.745445e-01 -4.674613e-01 -9.924243e-02 -4.398293e-02
1.497333e+11 2.504142e-02 -8.916007e-02 8.733855e-01 -4.651658e-01 8.743258e-01 -4.678466e-01 -9.940422e-02 -4.394368e-02
1.498667e+11 2.506688e-02 -8.927481e-02 8.731642e-01 -4.655465e-01 8.741068e-01 -4.682317e-01 -9.956609e-02 -4.390424e-02
1.500000e+11 2.509232e-02 -8.938964e-02 8.729427e-01 -4.659271e-01 8.738877e-01 -4.686168e-01 -9.972802e-02 -4.386460e-02
1.501333e+11 2.511774e-02 -8.950455e-02 8.727210e-01 -4.663076e-01 8.736683e-01 -4.690018e-01 -9.989002e-02 -4.382476e-02
1.502667e+11 2.514313e-02 -8.961954e-02 8.724991e-01 -4.666880e-01 8.734488e-01 -4.693867e-01 -1.000521e-01 -4.378473e-02
1.504000e+11 2.516850e-02 -8.973462e-02 8.722771e-01 -4.670683e-01 8.732290e-01 -4.697716e-01 -1.002142e-01 -4.374451e-02
1.505333e+11 2.519384e-02 -8.984977e-02 8.720548e-01 -4.674485e-01 8.730091e-01 -4.701563e-01 -1.003764e-01 -4.370409e-02
1.506667e+11 2.521917e-02 -8.996501e-02 8.718324e-01 -4.678286e-01 8.727889e-01 -4.705410e-01 -1.005387e-01 -4.366348e-02
1.508000e+11 2.524446e-02 -9.008034e-02 8.716098e-01 -4.682086e-01 8.725685e-01 -4.709255e-01 -1.007010e-01 -4.362266e-02
1.509333e+11 2.526974e-02 -9.019575e-02 8.713870e-01 -4.685886e-01 8.723479e-01 -4.713100e-01 -1.008634e-01 -4.358166e-02
1.510667e+11 2.529499e-02 -9.031123e-02 8.711640e-01 -4.689684e-01 8.721272e-01 -4.716944e-01 -1.010259e-01 -4.354046e-02
1.512000e+11 2.532022e-02 -9.042681e-02 8.709408e-01 -4.693481e-01 8.719062e-01 -4.720788e-01 -1.011884e-01 -4.349906e-02
1.513333e+11 2.534542e-02 -9.054246e-02 8.707174e-01 -4.697277e-01 8.716850e-01 -4.724630e-01 -1.013510e-01 -4.345747e-02
1.514667e+11 2.537060e-02 -9.065820e-02 8.704939e-01 -4.701073e-01 8.714636e-01 -4.728472e-01 -1.015136e-01 -4.341568e-02
1.516000e+11 2.539576e-02 -9.077402e-02 8.702701e-01 -4.704867e-01 8.712420e-01 -4.732312e-01 -1.016763e-01 -4.337369e-02
1.517333e+11 2.542089e-02 -9.088992e-02 8.700462e-01 -4.708660e-01 8.710202e-01 -4.736152e-01 -1.018391e-01 -4.333151e-02
1.518667e+11 2.544600e-02 -9.100591e-02 8.698221e-01 -4.712452e-01 8.707982e-01 -4.739991e-01 -1.020020e-01 -4.328913e-02
1.520000e+11 2.547108e-02 -9.112197e-02 8.695977e-01 -4.716244e-01 8.705760e-01 -4.743829e-01 -1.021649e-01 -4.324656e-02
1.521333e+11 2.549614e-02 -9.123813e-02 8.693732e-01 -4.720034e-01 8.703536e-01 -4.747666e-01 -1.023279e-01 -4.320379e-02
1.522667e+11 2.552117e-02 -9.135436e-02 8.691486e-01 -4.723823e-01 8.701310e-01 -4.751503e-01 -1.024909e-01 -4.316083e-02
1.524000e+11 2.554618e-02 -9.147067e-02 8.689237e-01 -4.727612e-01 8.699081e-01 -4.755338e-01 -1.026540e-01 -4.311766e-02
1.525333e+11 2.557116e-02 -9.158707e-02 8.686986e-01 -4.731399e-01 8.696851e-01 -4.759172e-01 -1.028172e-01 -4.307430e-02
1.526667e+11 2.559612e-02 -9.170355e-02 8.684734e-01 -4.735186e-01 8.694619e-01 -4.763006e-01 -1.029804e-01 -4.303075e-02
1.528000e+11 2.562105e-02 -9.182011e-02 8.682479e-01 -4.738971e-01 8.692384e-01 -4.766839e-01 -1.031437e-01 -4.298700e-02
1.529333e+11 2.564596e-02 -9.193676e-02 8.680223e-01 -4.742756e-01 8.690148e-01 -4.770671e-01 -1.033070e-01 -4.294305e-02
1.530667e+11 2.567084e-02 -9.205348e-02 8.677965e-01 -4.746539e-01 8.687909e-01 -4.774502e-01 -1.034705e-01 -4.289890e-02
1.532000e+11 2.569570e-02 -9.217029e-02 8.675705e-01 -4.750322e-01 8.685668e-01 -4.778332e-01 -1.036339e-01 -4.285456e-02
1.533333e+11 2.572053e-02 -9.228718e-02 8.673443e-01 -4.754103e-01 8.683426e-01 -4.782161e-01 -1.037975e-01 -4.281002e-02
1.534667e+11 2.574533e-02 -9.240415e-02 8.671179e-01 -4.757884e-01 8.681181e-01 -4.785989e-01 -1.039611e-01 -4.276529e-02
1.536000e+11 2.577011e-02 -9.252121e-02 8.668913e-01 -4.761664e-01 8.678934e-01 -4.789817e-01 -1.041248e-01 -4.272035e-02
1.537333e+11 2.579487e-02 -9.263835e-02 8.666646e-01 -4.765442e-01 8.676685e-01 -4.793643e-01 -1.042885e-01 -4.267522e-02
1.538667e+11 2.581959e-02 -9.275556e-02 8.664376e-01 -4.769220e-01 8.674434e-01 -4.797469e-01 -1.044523e-01 -4.262989e-02
1.540000e+11 2.584429e-02 -9.287287e-02 8.662105e-01 -4.772997e-01 8.672181e-01 -4.801293e-01 -1.046162e-01 -4.258437e-02
1.541333e+11 2.586896e-02 -9.299025e-02 8.659832e-01 -4.776772e-01 8.669926e-01 -4.805117e-01 -1.047801e-01 -4.253864e-02
1.542667e+11 2.589361e-02 -9.310771e-02 8.657557e-01 -4.780547e-01 8.667669e-01 -4.808939e-01 -1.049441e-01 -4.249272e-02
1.544000e+11 2.591823e-02 -9.322526e-02 8.655280e-01 -4.784321e-01 8.665409e-01 -4.812761e-01 -1.051081e-01 -4.244661e-02
1.545333e+11 2.594282e-02 -9.334289e-02 8.653001e-01 -4.788094e-01 8.663148e-01 -4.816582e-01 -1.052722e-01 -4.240029e-02
1.546667e+11 2.596739e-02 -9.346059e-02 8.650720e-01 -4.791865e-01 8.660884e-01 -4.820402e-01 -1.054364e-01 -4.235377e-02
1.548000e+11 2.599193e-02 -9.357839e-02 8.648438e-01 -4.795636e-01 8.658619e-01 -4.824221e-01 -1.056006e-01 -4.230706e-02
1.549333e+11 2.601644e-02 -9.369626e-02 8.646153e-01 -4.799406e-01 8.656351e-01 -4.828039e-01 -1.057649e-01 -4.226015e-02
1.550667e+11 2.604093e-02 -9.381421e-02 8.643867e-01 -4.803175e-01 8.654082e-01 -4.831856e-01 -1.059293e-01 -4.221304e-02
1.552000e+11 2.606538e-02 -9.393225e-02 8.641579e-01 -4.806943e-01 8.651810e-01 -4.835672e-01 -1.060937e-01 -4.216573e-02
1.553333e+11 2.608982e-02 -9.405036e-02 8.639288e-01 -4.810710e-01 8.649536e-01 -4.839487e-01 -1.062582e-01 -4.211823e-02
1.554667e+11 2.611422e-02 -9.416856e-02 8.636996e-01 -4.814476e-01 8.647260e-01 -4.843301e-01 -1.064227e-01 -4.207052e-02
1.556000e+11 2.613859e-02 -9.428684e-02 8.634702e-01 -4.818241e-01 8.644982e-01 -4.847115e-01 -1.065873e-01 -4.202262e-02
1.557333e+11 2.616294e-02 -9.440520e-02 8.632407e-01 -4.822005e-01 8.642702e-01 -4.850927e-01 -1.067519e-01 -4.197452e-02
1.558667e+11 2.618726e-02 -9.452364e-02 8.630109e-01 -4.825768e-01 8.640420e-01 -4.854738e-01 -1.069167e-01 -4.192622e-02
1.560000e+11 2.621155e-02 -9.464217e-02 8.627809e-01 -4.829531e-01 8.638135e-01 -4.858548e-01 -1.070814e-01 -4.187772e-02
1.561333e+11 2.623581e-02 -9.476077e-02 8.625508e-01 -4.833292e-01 8.635849e-01 -4.862357e-01 -1.072463e-01 -4.182902e-02
1.562667e+11 2.626005e-02 -9.487946e-02 8.623205e-01 -4.837052e-01 8.633560e-01 -4.866166e-01 -1.074112e-01 -4.178012e-02
1.564000e+11 2.628426e-02 -9.499822e-02 8.620899e-01 -4.840811e-01 8.631270e-01 -4.869973e-01 -1.075761e-01 -4.173102e-02
1.565333e+11 2.630843e-02 -9.511707e-02 8.618592e-01 -4.844570e-01 8.628977e-01 -4.873779e-01 -1.077411e-01 -4.168172e-02
1.566667e+11 2.633258e-02 -9.523600e-02 8.616283e-01 -4.848327e-01 8.626683e-01 -4.877584e-01 -1.079062e-01 -4.163222e-02
1.568000e+11 2.635671e-02 -9.535501e-02 8.613972e-01 -4.852083e-01 8.624386e-01 -4.881389e-01 -1.080714e-01 -4.158252e-02
1.569333e+11 2.638080e-02 -9.547410e-02 8.611659e-01 -4.855839e-01 8.622087e-01 -4.885192e-01 -1.082365e-01 -4.153263e-02
1.570667e+11 2.640486e-02 -9.559327e-02 8.609345e-01 -4.859593e-01 8.619786e-01 -4.888994e-01 -1.084018e-01 -4.148253e-02
1.572000e+11 2.642890e-02 -9.571252e-02 8.607028e-01 -4.863346e-01 8.617483e-01 -4.892795e-01 -1.085671e-01 -4.143223e-02
1.573333e+11 2.645291e-02 -9.583185e-02 8.604709e-01 -4.867099e-01 8.615178e-01 -4.896595e-01 -1.087325e-01 -4.138173e-02
1.574667e+11 2.647688e-02 -9.595126e-02 8.602389e-01 -4.870850e-01 8.612870e-01 -4.900394e-01 -1.088979e-01 -4.133103e-02
1.576000e+11 2.650083e-02 -9.607076e-02 8.600067e-01 -4.874601e-01 8.610561e-01 -4.904192e-01 -1.090634e-01 -4.128013e-02
1.577333e+11 2.652475e-02 -9.619033e-02 8.597742e-01 -4.878351e-01 8.608250e-01 -4.907990e-01 -1.092290e-01 -4.122903e-02
1.578667e+11 2.654864e-02 -9.630998e-02 8.595416e-01 -4.882099e-01 8.605936e-01 -4.911785e-01 -1.093946e-01 -4.117773e-02
1.580000e+11 2.657250e-02 -9.642972e-02 8.593088e-01 -4.885847e-01 8.603621e-01 -4.915580e-01 -1.095602e-01 -4.112623e-02
1.581333e+11 2.659633e-02 -9.654953e-02 8.590758e-01 -4.889594e-01 8.601303e-01 -4.919374e-01 -1.097259e-01 -4.107452e-02
1.582667e+11 2.662013e-02 -9.666943e-02 8.588426e-01 -4.893339e-01 8.598983e-01 -4.923167e-01 -1.098917e-01 -4.102262e-02
1.584000e+11 2.664391e-02 -9.678940e-02 8.586093e-01 -4.897084e-01 8.596662e-01 -4.926959e-01 -1.100576e-01 -4.097051e-02
1.585333e+11 2.666765e-02 -9.690946e-02 8.583757e-01 -4.900828e-01 8.594338e-01 -4.930749e-01 -1.102235e-01 -4.091820e-02
1.586667e+11 2.669136e-02 -9.702959e-02 8.581419e-01 -4.904571e-01 8.592012e-01 -4.934539e-01 -1.103894e-01 -4.086569e-02
1.588000e+11 2.671504e-02 -9.714981e-02 8.579080e-01 -4.908312e-01 8.589684e-01 -4.938328e-01 -1.105554e-01 -4.081298e-02
1.589333e+11 2.673870e-02 -9.727011e-02 8.576738e-01 -4.912053e-01 8.587354e-01 -4.942115e-01 -1.107215e-01 -4.076006e-02
1.590667e+11 2.676232e-02 -9.739048e-02 8.574395e-01 -4.915793e-01 8.585021e-01 -4.945901e-01 -1.108876e-01 -4.070694e-02
1.592000e+11 2.678591e-02 -9.751094e-02 8.572050e-01 -4.919532e-01 8.582687e-01 -4.949687e-01 -1.110538e-01 -4.065362e-02
1.593333e+11 2.680948e-02 -9.763147e-02 8.569703e-01 -4.923270e-01 8.580351e-01 -4.953471e-01 -1.112200e-01 -4.060010e-02
1.594667e+11 2.683301e-02 -9.775209e-02 8.567353e-01 -4.927007e-01 8.578012e-01 -4.957254e-01 -1.113863e-01 -4.054637e-02
1.596000e+11 2.685651e-02 -9.787279e-02 8.565002e-01 -4.930743e-01 8.575672e-01 -4.961036e-01 -1.115527e-01 -4.049245e-02
1.597333e+11 2.687998e-02 -9.799356e-02 8.562649e-01 -4.934478e-01 8.573329e-01 -4.964817e-01 -1.117191e-01 -4.043831e-02
1.598667e+11 2.690342e-02 -9.811442e-02 8.560294e-01 -4.938212e-01 8.570985e-01 -4.968596e-01 -1.118856e-01 -4.038398e-02
1.600000e+11 2.692683e-02 -9.823535e-02 8.557938e-01 -4.941946e-01 8.568638e-01 -4.972375e-01 -1.120521e-01 -4.032944e-02
1.601333e+11 2.695021e-02 -9.835637e-02 8.555579e-01 -4.945678e-01 8.566289e-01 -4.976152e-01 -1.122187e-01 -4.027470e-02
1.602667e+11 2.697356e-02 -9.847746e-02 8.553218e-01 -4.949409e-01 8.563938e-01 -4.979929e-01 -1.123853e-01 -4.021975e-02
1.604000e+11 2.699688e-02 -9.859863e-02 8.550855e-01 -4.953139e-01 8.561586e-01 -4.983704e-01 -1.125520e-01 -4.016460e-02
1.605333e+11 2.702017e-02 -9.871989e-02 8.548491e-01 -4.956868e-01 8.559231e-01 -4.987478e-01 -1.127187e-01 -4.010925e-02
1.606667e+11 2.704343e-02 -9.884122e-02 8.546124e-01 -4.960597e-01 8.556874e-01 -4.991251e-01 -1.128855e-01 -4.005369e-02
1.608000e+11 2.706665e-02 -9.896263e-02 8.543756e-01 -4.964324e-01 8.554515e-01 -4.995023e-01 -1.130524e-01 -3.999792e-02
1.609333e+11 2.708985e-02 -9.908412e-02 8.541385e-01 -4.968050e-01 8.552153e-01 -4.998794e-01 -1.132193e-01 -3.994196e-02
1.610667e+11 2.711301e-02 -9.920569e-02 8.539013e-01 -4.971776e-01 8.549790e-01 -5.002563e-01 -1.133862e-01 -3.988578e-02
1.612000e+11 2.713614e-02 -9.932734e-02 8.536639e-01 -4.975500e-01 8.547425e-01 -5.006331e-01 -1.135533e-01 -3.982941e-02
1.613333e+11 2.715924e-02 -9.944907e-02 8.534262e-01 -4.979223e-01 8.545058e-01 -5.010099e-01 -1.137203e-01 -3.977282e-02
1.614667e+11 2.718231e-02 -9.957088e-02 8.531884e-01 -4.982946e-01 8.542688e-01 -5.013865e-01 -1.138875e-01 -3.971603e-02
1.616000e+11 2.720535e-02 -9.969277e-02 8.529504e-01 -4.986667e-01 8.540317e-01 -5.017629e-01 -1.140546e-01 -3.965904e-02
1.617333e+11 2.722836e-02 -9.981474e-02 8.527122e-01 -4.990388e-01 8.537944e-01 -5.021393e-01 -1.142219e-01 -3.960184e-02
1.618667e+11 2.725134e-02 -9.993678e-02 8.524737e-01 -4.994107e-01 8.535568e-01 -5.025156e-01 -1.143892e-01 -3.954443e-02
1.620000e+11 2.727428e-02 -1.000589e-01 8.522351e-01 -4.997826e-01 8.533191e-01 -5.028917e-01 -1.145565e-01 -3.948682e-02
1.621333e+11 2.729719e-02 -1.001811e-01 8.519963e-01 -5.001543e-01 8.530811e-01 -5.032677e-01 -1.147239e-01 -3.942900e-02
1.622667e+11 2.732007e-02 -1.003034e-01 8.517573e-01 -5.005260e-01 8.528430e-01 -5.036436e-01 -1.148913e-01 -3.937097e-02
1.624000e+11 2.734292e-02 -1.004258e-01 8.515181e-01 -5.008975e-01 8.526046e-01 -5.040194e-01 -1.150588e-01 -3.931274e-02
1.625333e+11 2.736574e-02 -1.005482e-01 8.512787e-01 -5.012690e-01 8.523661e-01 -5.043950e-01 -1.152264e-01 -3.925430e-02
1.626667e+11 2.738853e-02 -1.006707e-01 8.510391e-01 -5.016403e-01 8.521273e-01 -5.047706e-01 -1.153940e-01 -3.919565e-02
1.628000e+11 2.741128e-02 -1.007933e-01 8.507993e-01 -5.020116e-01 8.518883e-01 -5.051460e-01 -1.155617e-01 -3.913680e-02
1.629333e+11 2.743400e-02 -1.009160e-01 8.505593e-01 -5.023827e-01 8.516492e-01 -5.055213e-01 -1.157294e-01 -3.907774e-02
1.630667e+11 2.745669e-02 -1.010388e-01 8.503191e-01 -5.027538e-01 8.514098e-01 -5.058965e-01 -1.158971e-01 -3.901847e-02
1.632000e+11 2.747935e-02 -1.011616e-01 8.500787e-01 -5.031248e-01 8.511702e-01 -5.062715e-01 -1.160650e-01 -3.895899e-02
1.633333e+11 2.750197e-02 -1.012845e-01 8.498381e-01 -5.034956e-01 8.509304e-01 -5.066464e-01 -1.162328e-01 -3.889930e-02
1.634667e+11 2.752457e-02 -1.014075e-01 8.495973e-01 -5.038664e-01 8.506905e-01 -5.070213e-01 -1.164007e-01 -3.883941e-02
1.636000e+11 2.754713e-02 -1.015306e-01 8.493564e-01 -5.042370e-01 8.504503e-01 -5.073959e-01 -1.165687e-01 -3.877931e-02
1.637333e+11 2.756966e-02 -1.016537e-01 8.491152e-01 -5.046076e-01 8.502099e-01 -5.077705e-01 -1.167367e-01 -3.871900e-02
1.638667e+11 2.759215e-02 -1.017770e-01 8.488738e-01 -5.049780e-01 8.499694e-01 -5.081449e-01 -1.169048e-01 -3.865847e-02
1.640000e+11 2.761462e-02 -1.019003e-01 8.486322e-01 -5.053484e-01 8.497286e-01 -5.085193e-01 -1.170729e-01 -3.859774e-02
1.641333e+11 2.763705e-02 -1.020237e-01 8.483904e-01 -5.057187e-01 8.494876e-01 -5.088935e-01 -1.172411e-01 -3.853680e-02
1.642667e+11 2.765945e-02 -1.021471e-01 8.481484e-01 -5.060888e-01 8.492464e-01 -5.092675e-01 -1.174093e-01 -3.847566e-02
1.644000e+11 2.768182e-02 -1.022707e-01 8.479062e-01 -5.064589e-01 8.490051e-01 -5.096415e-01 -1.175776e-01 -3.841430e-02
1.645333e+11 2.770415e-02 -1.023943e-01 8.476638e-01 -5.068288e-01 8.487635e-01 -5.100153e-01 -1.177459e-01 -3.835273e-02
1.646667e+11 2.772645e-02 -1.025180e-01 8.474212e-01 -5.071987e-01 8.485217e-01 -5.103890e-01 -1.179143e-01 -3.829095e-02
1.648000e+11 2.774872e-02 -1.026418e-01 8.471784e-01 -5.075684e-01 8.482798e-01 -5.107626e-01 -1.180827e-01 -3.822896e-02
1.649333e+11 2.777095e-02 -1.027657e-01 8.469354e-01 -5.079381e-01 8.480376e-01 -5.111360e-01 -1.182512e-01 -3.816676e-02
1.650667e+11 2.779316e-02 -1.028896e-01 8.466922e-01 -5.083076e-01 8.477953e-01 -5.115093e-01 -1.184197e-01 -3.810434e-02
1.652000e+11 2.781533e-02 -1.030136e-01 8.464488e-01 -5.086771e-01 8.475527e-01 -5.118825e-01 -1.185883e-01 -3.804172e-02
1.653333e+11 2.783746e-02 -1.031377e-01 8.462052e-01 -5.090464e-01 8.473100e-01 -5.122556e-01 -1.187569e-01 -3.797889e-02
1.654667e+11 2.785957e-02 -1.032619e-01 8.459614e-01 -5.094156e-01 8.470670e-01 -5.126285e-01 -1.189256e-01 -3.791584e-02
1.656000e+11 2.788164e-02 -1.033861e-01 8.457173e-01 -5.097848e-01 8.468239e-01 -5.130013e-01 -1.190943e-01 -3.785258e-02
1.657333e+11 2.790368e-02 -1.035105e-01 8.454731e-01 -5.101538e-01 8.465805e-01 -5.133740e-01 -1.192630e-01 -3.778911e-02
1.658667e+11 2.792568e-02 -1.036349e-01 8.452287e-01 -5.105227e-01 8.463370e-01 -5.137466e-01 -1.194318e-01 -3.772543e-02
1.660000e+11 2.794765e-02 -1.037594e-01 8.449841e-01 -5.108915e-01 8.460933e-01 -5.141190e-01 -1.196007e-01 -3.766154e-02
1.661333e+11 2.796959e-02 -1.038840e-01 8.447392e-01 -5.112603e-01 8.458493e-01 -5.144913e-01 -1.197696e-01 -3.759743e-02
1.662667e+11 2.799149e-02 -1.040086e-01 8.444942e-01 -5.116289e-01 8.456052e-01 -5.148635e-01 -1.199385e-01 -3.753311e-02
1.664000e+11 2.801336e-02 -1.041333e-01 8.442489e-01 -5.119974e-01 8.453609e-01 -5.152356e-01 -1.201075e-01 -3.746858e-02
1.665333e+11 2.803520e-02 -1.042581e-01 8.440035e-01 -5.123658e-01 8.451164e-01 -5.156075e-01 -1.202766e-01 -3.740383e-02
1.666667e+11 2.805701e-02 -1.043830e-01 8.437578e-01 -5.127341e-01 8.448717e-01 -5.159793e-01 -1.204457e-01 -3.733887e-02
1.668000e+11 2.807878e-02 -1.045080e-01 8.435120e-01 -5.131023e-01 8.446268e-01 -5.163509e-01 -1.206148e-01 -3.727370e-02
1.669333e+11 2.810051e-02 -1.046330e-01 8.432659e-01 -5.134703e-01 8.443818e-01 -5.167225e-01 -1.207840e-01 -3.720831e-02
1.670667e+11 2.812222e-02 -1.047582e-01 8.430196e-01 -5.138383e-01 8.441365e-01 -5.170939e-01 -1.209532e-01 -3.714270e-02
1.672000e+11 2.814389e-02 -1.048834e-01 8.427731e-01 -5.142062e-01 8.438910e-01 -5.174652e-01 -1.211225e-01 -3.707689e-02
1.673333e+11 2.816552e-02 -1.050086e-01 8.425264e-01 -5.145740e-01 8.436454e-01 -5.178363e-01 -1.212918e-01 -3.701086e-02
1.674667e+11 2.818713e-02 -1.051340e-01 8.422795e-01 -5.149416e-01 8.433995e-01 -5.182073e-01 -1.214612e-01 -3.694461e-02
1.676000e+11 2.820869e-02 -1.052594e-01 8.420324e-01 -5.153092e-01 8.431535e-01 -5.185782e-01 -1.216306e-01 -3.687815e-02
1.677333e+11 2.823023e-02 -1.053850e-01 8.417851e-01 -5.156766e-01 8.429073e-01 -5.189490e-01 -1.218000e-01 -3.681147e-02
1.678667e+11 2.825173e-02 -1.055106e-01 8.415376e-01 -5.160439e-01 8.426609e-01 -5.193196e-01 -1.219695e-01 -3.674458e-02
1.680000e+11 2.827319e-02 -1.056362e-01 8.412899e-01 -5.164112e-01 8.424143e-01 -5.196901e-01 -1.221391e-01 -3.667747e-02
1.681333e+11 2.829463e-02 -1.057620e-01 8.410419e-01 -5.167783e-01 8.421675e-01 -5.200605e-01 -1.223086e-01 -3.661015e-02
1.682667e+11 2.831602e-02 -1.058878e-01 8.407938e-01 -5.171453e-01 8.419205e-01 -5.204307e-01 -1.224783e-01 -3.654261e-02
1.684000e+11 2.833739e-02 -1.060137e-01 8.405454e-01 -5.175122e-01 8.416734e-01 -5.208008e-01 -1.226479e-01 -3.647485e-02
1.685333e+11 2.835872e-02 -1.061397e-01 8.402969e-01 -5.178790e-01 8.414260e-01 -5.211708e-01 -1.228176e-01 -3.640688e-02
1.686667e+11 2.838001e-02 -1.062658e-01 8.400481e-01 -5.182457e-01 8.411785e-01 -5.215407e-01 -1.229874e-01 -3.633869e-02
1.688000e+11 2.840127e-02 -1.063919e-01 8.397991e-01 -5.186122e-01 8.409307e-01 -5.219104e-01 -1.231572e-01 -3.627028e-02
1.689333e+11 2.842250e-02 -1.065182e-01 8.395499e-01 -5.189787e-01 8.406828e-01 -5.222800e-01 -1.233270e-01 -3.620165e-02
1.690667e+11 2.844369e-02 -1.066445e-01 8.393005e-01 -5.193450e-01 8.404347e-01 -5.226494e-01 -1.234969e-01 -3.613281e-02
1.692000e+11 2.846485e-02 -1.067709e-01 8.390509e-01 -5.197112e-01 8.401865e-01 -5.230188e-01 -1.236668e-01 -3.606375e-02
1.693333e+11 2.848597e-02 -1.068973e-01 8.388011e-01 -5.200774e-01 8.399380e-01 -5.233880e-01 -1.238368e-01 -3.599447e-02
1.694667e+11 2.850705e-02 -1.070239e-01 8.385510e-01 -5.204434e-01 8.396893e-01 -5.237571e-01 -1.240068e-01 -3.592498e-02
1.696000e+11 2.852811e-02 -1.071505e-01 8.383008e-01 -5.208093e-01 8.394405e-01 -5.241260e-01 -1.241768e-01 -3.585526e-02
1.697333e+11 2.854912e-02 -1.072772e-01 8.380503e-01 -5.211750e-01 8.391915e-01 -5.244948e-01 -1.243469e-01 -3.578533e-02
1.698667e+11 2.857011e-02 -1.074040e-01 8.377996e-01 -5.215407e-01 8.389423e-01 -5.248635e-01 -1.245170e-01 -3.571518e-02
1.700000e+11 2.859105e-02 -1.075309e-01 8.375487e-01 -5.219062e-01 8.386929e-01 -5.252320e-01 -1.246871e-01 -3.564481e-02
1.701333e+11 2.861197e-02 -1.076578e-01 8.372976e-01 -5.222717e-01 8.384433e-01 -5.256005e-01 -1.248573e-01 -3.557421e-02
1.702667e+11 2.863284e-02 -1.077849e-01 8.370463e-01 -5.226370e-01 8.381936e-01 -5.259688e-01 -1.250276e-01 -3.550340e-02
1.704000e+11 2.865368e-02 -1.079120e-01 8.367948e-01 -5.230022e-01 8.379436e-01 -5.263369e-01 -1.251978e-01 -3.543238e-02
1.705333e+11 2.867449e-02 -1.080392e-01 8.365431e-01 -5.233673e-01 8.376935e-01 -5.267050e-01 -1.253681e-01 -3.536113e-02
1.706667e+11 2.869526e-02 -1.081664e-01 8.362911e-01 -5.237323e-01 8.374432e-01 -5.270729e-01 -1.255385e-01 -3.528966e-02
1.708000e+11 2.871600e-02 -1.082938e-01 8.360390e-01 -5.240971e-01 8.371927e-01 -5.274406e-01 -1.257089e-01 -3.521797e-02
1.709333e+11 2.873670e-02 -1.084212e-01 8.357866e-01 -5.244618e-01 8.369421e-01 -5.278083e-01 -1.258793e-01 -3.514606e-02
1.710667e+11 2.875736e-02 -1.085487e-01 8.355340e-01 -5.248265e-01 8.366912e-01 -5.281758e-01 -1.260497e-01 -3.507392e-02
1.712000e+11 2.877799e-02 -1.086763e-01 8.352812e-01 -5.251910e-01 8.364402e-01 -5.285432e-01 -1.262202e-01 -3.500157e-02
1.713333e+11 2.879858e-02 -1.088040e-01 8.350282e-01 -5.255553e-01 8.361890e-01 -5.289104e-01 -1.263908e-01 -3.492900e-02
1.714667e+11 2.881914e-02 -1.089317e-01 8.347750e-01 -5.259196e-01 8.359376e-01 -5.292776e-01 -1.265613e-01 -3.485621e-02
1.716000e+11 2.883966e-02 -1.090596e-01 8.345215e-01 -5.262837e-01 8.356861e-01 -5.296446e-01 -1.267319e-01 -3.478319e-02
1.717333e+11 2.886014e-02 -1.091875e-01 8.342679e-01 -5.266478e-01 8.354343e-01 -5.300114e-01 -1.269025e-01 -3.470995e-02
1.718667e+11 2.888059e-02 -1.093155e-01 8.340140e-01 -5.270117e-01 8.351824e-01 -5.303782e-01 -1.270732e-01 -3.463649e-02
1.720000e+11 2.890100e-02 -1.094435e-01 8.337599e-01 -5.273754e-01 8.349303e-01 -5.307448e-01 -1.272439e-01 -3.456281e-02
1.721333e+11 2.892137e-02 -1.095717e-01 8.335056e-01 -5.277391e-01 8.346781e-01 -5.311113e-01 -1.274146e-01 -3.448891e-02
1.722667e+11 2.894171e-02 -1.096999e-01 8.332511e-01 -5.281026e-01 8.344256e-01 -5.314776e-01 -1.275854e-01 -3.441478e-02
1.724000e+11 2.896201e-02 -1.098282e-01 8.329964e-01 -5.284660e-01 8.341730e-01 -5.318438e-01 -1.277562e-01 -3.434043e-02
1.725333e+11 2.898228e-02 -1.099566e-01 8.327414e-01 -5.288293e-01 8.339202e-01 -5.322099e-01 -1.279270e-01 -3.426586e-02
1.726667e+11 2.900251e-02 -1.100851e-01 8.324863e-01 -5.291925e-01 8.336672e-01 -5.325759e-01 -1.280979e-01 -3.419106e-02
1.728000e+11 2.902270e-02 -1.102137e-01 8.322309e-01 -5.295555e-01 8.334140e-01 -5.329418e-01 -1.282688e-01 -3.411605e-02
1.729333e+11 2.904285e-02 -1.103423e-01 8.319753e-01 -5.299184e-01 8.331607e-01 -5.333075e-01 -1.284397e-01 -3.404080e-02
1.730667e+11 2.906297e-02 -1.104710e-01 8.317195e-01 -5.302812e-01 8.329072e-01 -5.336731e-01 -1.286107e-01 -3.396534e-02
1.732000e+11 2.908305e-02 -1.105998e-01 8.314635e-01 -5.306439e-01 8.326535e-01 -5.340385e-01 -1.287817e-01 -3.388965e-02
1.733333e+11 2.910309e-02 -1.107287e-01 8.312072e-01 -5.310064e-01 8.323996e-01 -5.344039e-01 -1.289527e-01 -3.381374e-02
1.734667e+11 2.912310e-02 -1.108577e-01 8.309508e-01 -5.313688e-01 8.321456e-01 -5.347691e-01 -1.291238e-01 -3.373760e-02
1.736000e+11 2.914307e-02 -1.109868e-01 8.306941e-01 -5.317311e-01 8.318914e-01 -5.351342e-01 -1.292948e-01 -3.366124e-02
1.737333e+11 2.916300e-02 -1.111159e-01 8.304372e-01 -5.320932e-01 8.316370e-01 -5.354991e-01 -1.294659e-01 -3.358465e-02
1.738667e+11 2.918289e-02 -1.112451e-01 8.301801e-01 -5.324553e-01 8.313824e-01 -5.358640e-01 -1.296371e-01 -3.350784e-02
1.740000e+11 2.920274e-02 -1.113744e-01 8.299228e-01 -5.328171e-01 8.311277e-01 -5.362287e-01 -1.298082e-01 -3.343081e-02
1.741333e+11 2.922256e-02 -1.115038e-01 8.296653e-01 -5.331789e-01 8.308728e-01 -5.365933e-01 -1.299794e-01 -3.335355e-02
1.742667e+11 2.924234e-02 -1.116332e-01 8.294075e-01 -5.335405e-01 8.306177e-01 -5.369577e-01 -1.301507e-01 -3.327606e-02
1.744000e+11 2.926208e-02 -1.117628e-01 8.291495e-01 -5.339020e-01 8.303624e-01 -5.373221e-01 -1.303219e-01 -3.319835e-02
1.745333e+11 2.928178e-02 -1.118924e-01 8.288914e-01 -5.342634e-01 8.301070e-01 -5.376863e-01 -1.304932e-01 -3.312042e-02
1.746667e+11 2.930144e-02 -1.120221e-01 8.286330e-01 -5.346247e-01 8.298514e-01 -5.380504e-01 -1.306645e-01 -3.304226e-02
1.748000e+11 2.932106e-02 -1.121519e-01 8.283743e-01 -5.349858e-01 8.295956e-01 -5.384144e-01 -1.308358e-01 -3.296387e-02
1.749333e+11 2.934065e-02 -1.122818e-01 8.281155e-01 -5.353467e-01 8.293396e-01 -5.387782e-01 -1.310072e-01 -3.288526e-02
1.750667e+11 2.936019e-02 -1.124118e-01 8.278565e-01 -5.357076e-01 8.290835e-01 -5.391419e-01 -1.311785e-01 -3.280642e-02
1.752000e+11 2.937970e-02 -1.125418e-01 8.275972e-01 -5.360683e-01 8.288272e-01 -5.395055e-01 -1.313500e-01 -3.272735e-02
1.753333e+11 2.939917e-02 -1.126719e-01 8.273377e-01 -5.364289e-01 8.285707e-01 -5.398690e-01 -1.315214e-01 -3.264806e-02
1.754667e+11 2.941859e-02 -1.128021e-01 8.270780e-01 -5.367893e-01 8.283140e-01 -5.402324e-01 -1.316928e-01 -3.256854e-02
1.756000e+11 2.943798e-02 -1.129324e-01 8.268181e-01 -5.371496e-01 8.280572e-01 -5.405956e-01 -1.318643e-01 -3.248880e-02
1.757333e+11 2.945733e-02 -1.130628e-01 8.265580e-01 -5.375098e-01 8.278002e-01 -5.409587e-01 -1.320358e-01 -3.240883e-02
1.758667e+11 2.947664e-02 -1.131933e-01 8.262976e-01 -5.378698e-01 8.275430e-01 -5.413217e-01 -1.322073e-01 -3.232863e-02
1.760000e+11 2.949590e-02 -1.133238e-01 8.260371e-01 -5.382297e-01 8.272857e-01 -5.416846e-01 -1.323789e-01 -3.224821e-02
1.761333e+11 2.951513e-02 -1.134544e-01 8.257763e-01 -5.385894e-01 8.270282e-01 -5.420473e-01 -1.325504e-01 -3.216756e-02
1.762667e+11 2.953432e-02 -1.135852e-01 8.255153e-01 -5.389490e-01 8.267705e-01 -5.424100e-01 -1.327220e-01 -3.208668e-02
1.764000e+11 2.955347e-02 -1.137160e-01 8.252541e-01 -5.393085e-01 8.265126e-01 -5.427725e-01 -1.328936e-01 -3.200557e-02
1.765333e+11 2.957257e-02 -1.138468e-01 8.249927e-01 -5.396678e-01 8.262546e-01 -5.431349e-01 -1.330653e-01 -3.192424e-02
1.766667e+11 2.959164e-02 -1.139778e-01 8.247310e-01 -5.400270e-01 8.259964e-01 -5.434972e-01 -1.332369e-01 -3.184268e-02
1.768000e+11 2.961066e-02 -1.141089e-01 8.244692e-01 -5.403861e-01 8.257380e-01 -5.438593e-01 -1.334086e-01 -3.176089e-02
1.769333e+11 2.962965e-02 -1.142400e-01 8.242071e-01 -5.407450e-01 8.254794e-01 -5.442214e-01 -1.335803e-01 -3.167888e-02
1.770667e+11 2.964859e-02 -1.143712e-01 8.239448e-01 -5.411038e-01 8.252207e-01 -5.445833e-01 -1.337520e-01 -3.159663e-02
1.772000e+11 2.966749e-02 -1.145025e-01 8.236823e-01 -5.414624e-01 8.249618e-01 -5.449451e-01 -1.339237e-01 -3.151416e-02
1.773333e+11 2.968634e-02 -1.146339e-01 8.234196e-01 -5.418209e-01 8.247027e-01 -5.453068e-01 -1.340955e-01 -3.143146e-02
1.774667e+11 2.970516e-02 -1.147654e-01 8.231567e-01 -5.421792e-01 8.244435e-01 -5.456684e-01 -1.342672e-01 -3.134853e-02
1.776000e+11 2.972393e-02 -1.148970e-01 8.228935e-01 -5.425374e-01 8.241841e-01 -5.460299e-01 -1.344390e-01 -3.126538e-02
1.777333e+11 2.974266e-02 -1.150286e-01 8.226301e-01 -5.428955e-01 8.239245e-01 -5.463912e-01 -1.346108e-01 -3.118199e-02
1.778667e+11 2.976135e-02 -1.151603e-01 8.223666e-01 -5.432534e-01 8.236647e-01 -5.467525e-01 -1.347826e-01 -3.109838e-02
1.780000e+11 2.978000e-02 -1.152922e-01 8.221028e-01 -5.436112e-01 8.234047e-01 -5.471136e-01 -1.349545e-01 -3.101454e-02
1.781333e+11 2.979860e-02 -1.154241e-01 8.218388e-01 -5.439688e-01 8.231446e-01 -5.474746e-01 -1.351263e-01 -3.093047e-02
1.782667e+11 2.981716e-02 -1.155561e-01 8.215745e-01 -5.443262e-01 8.228843e-01 -5.478355e-01 -1.352982e-01 -3.084618e-02
1.784000e+11 2.983568e-02 -1.156881e-01 8.213101e-01 -5.446836e-01 8.226239e-01 -5.481963e-01 -1.354701e-01 -3.076165e-02
1.785333e+11 2.985415e-02 -1.158203e-01 8.210455e-01 -5.450407e-01 8.223632e-01 -5.485570e-01 -1.356419e-01 -3.067690e-02
1.786667e+11 2.987258e-02 -1.159526e-01 8.207806e-01 -5.453978e-01 8.221024e-01 -5.489175e-01 -1.358139e-01 -3.059191e-02
1.788000e+11 2.989096e-02 -1.160849e-01 8.205155e-01 -5.457546e-01 8.218414e-01 -5.492780e-01 -1.359858e-01 -3.050670e-02
1.789333e+11 2.990931e-02 -1.162173e-01 8.202502e-01 -5.461114e-01 8.215803e-01 -5.496383e-01 -1.361577e-01 -3.042126e-02
1.790667e+11 2.992760e-02 -1.163498e-01 8.199847e-01 -5.464679e-01 8.213189e-01 -5.499985e-01 -1.363297e-01 -3.033559e-02
1.792000e+11 2.994585e-02 -1.164824e-01 8.197190e-01 -5.468244e-01 8.210574e-01 -5.503586e-01 -1.365016e-01 -3.024969e-02
1.793333e+11 2.996406e-02 -1.166151e-01 8.194531e-01 -5.471806e-01 8.207957e-01 -5.507186e-01 -1.366736e-01 -3.016357e-02
1.794667e+11 2.998222e-02 -1.167479e-01 8.191870e-01 -5.475368e-01 8.205338e-01 -5.510785e-01 -1.368456e-01 -3.007721e-02
1.796000e+11 3.000034e-02 -1.168807e-01 8.189206e-01 -5.478927e-01 8.202718e-01 -5.514383e-01 -1.370176e-01 -2.999063e-02
1.797333e+11 3.001841e-02 -1.170137e-01 8.186540e-01 -5.482486e-01 8.200096e-01 -5.517980e-01 -1.371896e-01 -2.990381e-02
1.798667e+11 3.003643e-02 -1.171467e-01 8.183873e-01 -5.486042e-01 8.197472e-01 -5.521576e-01 -1.373616e-01 -2.981677e-02
1.800000e+11 3.005441e-02 -1.172798e-01 8.181203e-01 -5.489598e-01 8.194846e-01 -5.525170e-01 -1.375336e-01 -2.972950e-02
1.801333e+11 3.007234e-02 -1.174131e-01 8.178531e-01 -5.493151e-01 8.192218e-01 -5.528764e-01 -1.377056e-01 -2.964200e-02
1.802667e+11 3.009023e-02 -1.175464e-01 8.175857e-01 -5.496703e-01 8.189589e-01 -5.532356e-01 -1.378777e-01 -2.955427e-02
1.804000e+11 3.010807e-02 -1.176797e-01 8.173181e-01 -5.500254e-01 8.186958e-01 -5.535948e-01 -1.380497e-01 -2.946631e-02
1.805333e+11 3.012586e-02 -1.178132e-01 8.170502e-01 -5.503803e-01 8.184325e-01 -5.539538e-01 -1.382218e-01 -2.937812e-02
1.806667e+11 3.014360e-02 -1.179468e-01 8.167822e-01 -5.507350e-01 8.181690e-01 -5.543127e-01 -1.383939e-01 -2.928970e-02
1.808000e+11 3.016130e-02 -1.180804e-01 8.165140e-01 -5.510896e-01 8.179054e-01 -5.546716e-01 -1.385659e-01 -2.920105e-02
1.809333e+11 3.017895e-02 -1.182142e-01 8.162455e-01 -5.514440e-01 8.176416e-01 -5.550303e-01 -1.387380e-01 -2.911218e-02
1.810667e+11 3.019655e-02 -1.183480e-01 8.159768e-01 -5.517983e-01 8.173776e-01 -5.553889e-01 -1.389101e-01 -2.902308e-02
1.812000e+11 3.021410e-02 -1.184819e-01 8.157080e-01 -5.521524e-01 8.171134e-01 -5.557474e-01 -1.390822e-01 -2.893374e-02
1.813333e+11 3.023161e-02 -1.186159e-01 8.154389e-01 -5.525064e-01 8.168490e-01 -5.561058e-01 -1.392543e-01 -2.884418e-02
1.814667e+11 3.024906e-02 -1.187500e-01 8.151696e-01 -5.528602e-01 8.165845e-01 -5.564641e-01 -1.394264e-01 -2.875439e-02
1.816000e+11 3.026647e-02 -1.188842e-01 8.149001e-01 -5.532138e-01 8.163197e-01 -5.568223e-01 -1.395985e-01 -2.866437e-02
1.817333e+11 3.028382e-02 -1.190185e-01 8.146304e-01 -5.535673e-01 8.160548e-01 -5.571804e-01 -1.397706e-01 -2.857412e-02
1.818667e+11 3.030113e-02 -1.191528e-01 8.143605e-01 -5.539206e-01 8.157897e-01 -5.575384e-01 -1.399427e-01 -2.848364e-02
1.820000e+11 3.031839e-02 -1.192873e-01 8.140904e-01 -5.542738e-01 8.155244e-01 -5.578963e-01 -1.401149e-01 -2.839293e-02
1.821333e+11 3.033559e-02 -1.194218e-01 8.138201e-01 -5.546268e-01 8.152589e-01 -5.582541e-01 -1.402870e-01 -2.830200e-02
1.822667e+11 3.035275e-02 -1.195564e-01 8.135495e-01 -5.549796e-01 8.149933e-01 -5.586117e-01 -1.404591e-01 -2.821083e-02
1.824000e+11 3.036985e-02 -1.196912e-01 8.132788e-01 -5.553323e-01 8.147275e-01 -5.589693e-01 -1.406312e-01 -2.811944e-02
1.825333e+11 3.038691e-02 -1.198260e-01 8.130079e-01 -5.556848e-01 8.144614e-01 -5.593268e-01 -1.408034e-01 -2.802782e-02
1.826667e+11 3.040391e-02 -1.199609e-01 8.127368e-01 -5.560372e-01 8.141952e-01 -5.596842e-01 -1.409755e-01 -2.793597e-02
1.828000e+11 3.042086e-02 -1.200959e-01 8.124654e-01 -5.563893e-01 8.139288e-01 -5.600415e-01 -1.411476e-01 -2.784389e-02
1.829333e+11 3.043776e-02 -1.202309e-01 8.121939e-01 -5.567414e-01 8.136622e-01 -5.603986e-01 -1.413198e-01 -2.775158e-02
1.830667e+11 3.045460e-02 -1.203661e-01 8.119221e-01 -5.570932e-01 8.133955e-01 -5.607557e-01 -1.414919e-01 -2.765904e-02
1.832000e+11 3.047140e-02 -1.205014e-01 8.116502e-01 -5.574449e-01 8.131285e-01 -5.611127e-01 -1.416641e-01 -2.756628e-02
1.833333e+11 3.048814e-02 -1.206367e-01 8.113780e-01 -5.577965e-01 8.128613e-01 -5.614696e-01 -1.418362e-01 -2.747329e-02
1.834667e+11 3.050483e-02 -1.207721e-01 8.111057e-01 -5.581479e-01 8.125940e-01 -5.618264e-01 -1.420083e-01 -2.738007e-02
1.836000e+11 3.052146e-02 -1.209077e-01 8.108331e-01 -5.584991e-01 8.123265e-01 -5.621830e-01 -1.421805e-01 -2.728662e-02
1.837333e+11 3.053804e-02 -1.210433e-01 8.105604e-01 -5.588501e-01 8.120587e-01 -5.625396e-01 -1.423526e-01 -2.719294e-02
1.838667e+11 3.055457e-02 -1.211790e-01 8.102874e-01 -5.592010e-01 8.117908e-01 -5.628961e-01 -1.425247e-01 -2.709904e-02
1.840000e+11 3.057104e-02 -1.213148e-01 8.100143e-01 -5.595517e-01 8.115227e-01 -5.632525e-01 -1.426969e-01 -2.700490e-02
1.841333e+11 3.058746e-02 -1.214507e-01 8.097409e-01 -5.599023e-01 8.112544e-01 -5.636088e-01 -1.428690e-01 -2.691054e-02
1.842667e+11 3.060382e-02 -1.215867e-01 8.094674e-01 -5.602527e-01 8.109859e-01 -5.639650e-01 -1.430411e-01 -2.681595e-02
1.844000e+11 3.062012e-02 -1.217228e-01 8.091936e-01 -5.606029e-01 8.107172e-01 -5.643211e-01 -1.432132e-01 -2.672114e-02
1.845333e+11 3.063637e-02 -1.218589e-01 8.089197e-01 -5.609529e-01 8.104483e-01 -5.646771e-01 -1.433854e-01 -2.662610e-02
1.846667e+11 3.065257e-02 -1.219952e-01 8.086455e-01 -5.613028e-01 8.101793e-01 -5.650330e-01 -1.435575e-01 -2.653083e-02
1.848000e+11 3.066871e-02 -1.221315e-01 8.083712e-01 -5.616526e-01 8.099100e-01 -5.653887e-01 -1.437296e-01 -2.643533e-02
1.849333e+11 3.068479e-02 -1.222680e-01 8.080967e-01 -5.620021e-01 8.096405e-01 -5.657444e-01 -1.439017e-01 -2.633960e-02
1.850667e+11 3.070081e-02 -1.224045e-01 8.078219e-01 -5.623515e-01 8.093708e-01 -5.661000e-01 -1.440738e-01 -2.624365e-02
1.852000e+11 3.071678e-02 -1.225411e-01 8.075470e-01 -5.627007e-01 8.091009e-01 -5.664556e-01 -1.442459e-01 -2.614747e-02
1.853333e+11 3.073269e-02 -1.226778e-01 8.072719e-01 -5.630498e-01 8.088309e-01 -5.668110e-01 -1.444180e-01 -2.605107e-02
1.854667e+11 3.074854e-02 -1.228146e-01 8.069966e-01 -5.633987e-01 8.085606e-01 -5.671663e-01 -1.445901e-01 -2.595443e-02
1.856000e+11 3.076434e-02 -1.229515e-01 8.067211e-01 -5.637474e-01 8.082901e-01 -5.675215e-01 -1.447622e-01 -2.585758e-02
1.857333e+11 3.078007e-02 -1.230885e-01 8.064454e-01 -5.640960e-01 8.080194e-01 -5.678766e-01 -1.449342e-01 -2.576049e-02
1.858667e+11 3.079575e-02 -1.232256e-01 8.061695e-01 -5.644443e-01 8.077485e-01 -5.682316e-01 -1.451063e-01 -2.566318e-02
1.860000e+11 3.081136e-02 -1.233627e-01 8.058934e-01 -5.647926e-01 8.074775e-01 -5.685865e-01 -1.452784e-01 -2.556564e-02
1.861333e+11 3.082692e-02 -1.235000e-01 8.056172e-01 -5.651406e-01 8.072062e-01 -5.689414e-01 -1.454504e-01 -2.546788e-02
1.862667e+11 3.084242e-02 -1.236373e-01 8.053407e-01 -5.654885e-01 8.069347e-01 -5.692961e-01 -1.456225e-01 -2.536989e-02
1.864000e+11 3.085785e-02 -1.237748e-01 8.050640e-01 -5.658362e-01 8.066630e-01 -5.696507e-01 -1.457945e-01 -2.527167e-02
1.865333e+11 3.087323e-02 -1.239123e-01 8.047872e-01 -5.661838e-01 8.063910e-01 -5.700052e-01 -1.459665e-01 -2.517323e-02
1.866667e+11 3.088855e-02 -1.240499e-01 8.045102e-01 -5.665311e-01 8.061189e-01 -5.703597e-01 -1.461385e-01 -2.507457e-02
1.868000e+11 3.090380e-02 -1.241877e-01 8.042330e-01 -5.668783e-01 8.058466e-01 -5.707140e-01 -1.463106e-01 -2.497568e-02
1.869333e+11 3.091899e-02 -1.243255e-01 8.039556e-01 -5.672254e-01 8.055740e-01 -5.710683e-01 -1.464826e-01 -2.487656e-02
1.870667e+11 3.093412e-02 -1.244634e-01 8.036780e-01 -5.675723e-01 8.053013e-01 -5.714224e-01 -1.466546e-01 -2.477722e-02
1.872000e+11 3.094919e-02 -1.246014e-01 8.034002e-01 -5.679190e-01 8.050283e-01 -5.717764e-01 -1.468265e-01 -2.467766e-02
1.873333e+11 3.096419e-02 -1.247394e-01 8.031222e-01 -5.682655e-01 8.047552e-01 -5.721304e-01 -1.469985e-01 -2.457786e-02
1.874667e+11 3.097914e-02 -1.248776e-01 8.028441e-01 -5.686119e-01 8.044818e-01 -5.724842e-01 -1.471705e-01 -2.447785e-02
1.876000e+11 3.099401e-02 -1.250159e-01 8.025657e-01 -5.689581e-01 8.042082e-01 -5.728380e-01 -1.473424e-01 -2.437761e-02
1.877333e+11 3.100883e-02 -1.251542e-01 8.022872e-01 -5.693041e-01 8.039344e-01 -5.731916e-01 -1.475144e-01 -2.427715e-02
1.878667e+11 3.102358e-02 -1.252927e-01 8.020085e-01 -5.696500e-01 8.036603e-01 -5.735452e-01 -1.476863e-01 -2.417646e-02
1.880000e+11 3.103827e-02 -1.254312e-01 8.017296e-01 -5.699957e-01 8.033861e-01 -5.738986e-01 -1.478582e-01 -2.407555e-02
1.881333e+11 3.105289e-02 -1.255699e-01 8.014506e-01 -5.703412e-01 8.031116e-01 -5.742520e-01 -1.480301e-01 -2.397442e-02
1.882667e+11 3.106744e-02 -1.257086e-01 8.011713e-01 -5.706866e-01 8.028369e-01 -5.746053e-01 -1.482020e-01 -2.387306e-02
1.884000e+11 3.108194e-02 -1.258474e-01 8.008919e-01 -5.710318e-01 8.025620e-01 -5.749584e-01 -1.483739e-01 -2.377148e-02
1.885333e+11 3.109636e-02 -1.259863e-01 8.006123e-01 -5.713768e-01 8.022869e-01 -5.753115e-01 -1.485458e-01 -2.366967e-02
1.886667e+11 3.111072e-02 -1.261253e-01 8.003325e-01 -5.717217e-01 8.020116e-01 -5.756644e-01 -1.487177e-01 -2.356765e-02
1.888000e+11 3.112501e-02 -1.262644e-01 8.000525e-01 -5.720664e-01 8.017360e-01 -5.760173e-01 -1.488895e-01 -2.346540e-02
1.889333e+11 3.113924e-02 -1.264036e-01 7.997724e-01 -5.724109e-01 8.014602e-01 -5.763700e-01 -1.490614e-01 -2.336293e-02
1.890667e+11 3.115340e-02 -1.265429e-01 7.994921e-01 -5.727553e-01 8.011842e-01 -5.767227e-01 -1.492332e-01 -2.326023e-02
1.892000e+11 3.116749e-02 -1.266822e-01 7.992116e-01 -5.730995e-01 8.009079e-01 -5.770752e-01 -1.494050e-01 -2.315731e-02
1.893333e+11 3.118151e-02 -1.268217e-01 7.989309e-01 -5.734435e-01 8.006315e-01 -5.774277e-01 -1.495768e-01 -2.305418e-02
1.894667e+11 3.119547e-02 -1.269612e-01 7.986500e-01 -5.737874e-01 8.003548e-01 -5.777800e-01 -1.497486e-01 -2.295082e-02
1.896000e+11 3.120936e-02 -1.271009e-01 7.983690e-01 -5.741311e-01 8.000779e-01 -5.781322e-01 -1.499204e-01 -2.284723e-02
1.897333e+11 3.122318e-02 -1.272406e-01 7.980878e-01 -5.744746e-01 7.998007e-01 -5.784844e-01 -1.500921e-01 -2.274343e-02
1.898667e+11 3.123693e-02 -1.273804e-01 7.978064e-01 -5.748180e-01 7.995234e-01 -5.788364e-01 -1.502639e-01 -2.263941e-02
1.900000e+11 3.125061e-02 -1.275203e-01 7.975248e-01 -5.751612e-01 7.992458e-01 -5.791883e-01 -1.504356e-01 -2.253516e-02
1.901333e+11 3.126422e-02 -1.276603e-01 7.972431e-01 -5.755042e-01 7.989679e-01 -5.795402e-01 -1.506073e-01 -2.243069e-02
1.902667e+11 3.127776e-02 -1.278004e-01 7.969612e-01 -5.758471e-01 7.986899e-01 -5.798919e-01 -1.507790e-01 -2.232601e-02
1.904000e+11 3.129123e-02 -1.279406e-01 7.966791e-01 -5.761898e-01 7.984116e-01 -5.802435e-01 -1.509507e-01 -2.222110e-02
1.905333e+11 3.130462e-02 -1.280809e-01 7.963969e-01 -5.765323e-01 7.981331e-01 -5.805950e-01 -1.511224e-01 -2.211597e-02
1.906667e+11 3.131795e-02 -1.282212e-01 7.961144e-01 -5.768747e-01 7.978543e-01 -5.809464e-01 -1.512941e-01 -2.201062e-02
1.908000e+11 3.133121e-02 -1.283617e-01 7.958318e-01 -5.772170e-01 7.975753e-01 -5.812977e-01 -1.514657e-01 -2.190505e-02
1.909333e+11 3.134439e-02 -1.285022e-01 7.955491e-01 -5.775590e-01 7.972961e-01 -5.816489e-01 -1.516373e-01 -2.179927e-02
1.910667e+11 3.135751e-02 -1.286429e-01 7.952661e-01 -5.779009e-01 7.970166e-01 -5.819999e-01 -1.518090e-01 -2.169326e-02
1.912000e+11 3.137055e-02 -1.287836e-01 7.949830e-01 -5.782426e-01 7.967369e-01 -5.823509e-01 -1.519806e-01 -2.158703e-02
1.913333e+11 3.138351e-02 -1.289244e-01 7.946998e-01 -5.785842e-01 7.964570e-01 -5.827017e-01 -1.521522e-01 -2.148059e-02
1.914667e+11 3.139641e-02 -1.290653e-01 7.944163e-01 -5.789256e-01 7.961768e-01 -5.830525e-01 -1.523237e-01 -2.137392e-02
1.916000e+11 3.140923e-02 -1.292063e-01 7.941327e-01 -5.792669e-01 7.958964e-01 -5.834031e-01 -1.524953e-01 -2.126704e-02
1.917333e+11 3.142198e-02 -1.293474e-01 7.938489e-01 -5.796080e-01 7.956158e-01 -5.837536e-01 -1.526668e-01 -2.115993e-02
1.918667e+11 3.143465e-02 -1.294886e-01 7.935650e-01 -5.799489e-01 7.953349e-01 -5.841040e-01 -1.528384e-01 -2.105261e-02
1.920000e+11 3.144725e-02 -1.296299e-01 7.932809e-01 -5.802897e-01 7.950537e-01 -5.844543e-01 -1.530099e-01 -2.094507e-02
1.921333e+11 3.145978e-02 -1.297712e-01 7.929966e-01 -5.806303e-01 7.947724e-01 -5.848045e-01 -1.531814e-01 -2.083732e-02
1.922667e+11 3.147223e-02 -1.299127e-01 7.927122e-01 -5.809708e-01 7.944907e-01 -5.851545e-01 -1.533529e-01 -2.072934e-02
1.924000e+11 3.148461e-02 -1.300542e-01 7.924275e-01 -5.813111e-01 7.942089e-01 -5.855044e-01 -1.535243e-01 -2.062115e-02
1.925333e+11 3.149691e-02 -1.301958e-01 7.921428e-01 -5.816512e-01 7.939268e-01 -5.858543e-01 -1.536958e-01 -2.051274e-02
1.926667e+11 3.150913e-02 -1.303375e-01 7.918578e-01 -5.819912e-01 7.936444e-01 -5.862040e-01 -1.538672e-01 -2.040411e-02
1.928000e+11 3.152128e-02 -1.304793e-01 7.915727e-01 -5.823311e-01 7.933618e-01 -5.865535e-01 -1.540387e-01 -2.029526e-02
1.929333e+11 3.153335e-02 -1.306212e-01 7.912875e-01 -5.826708e-01 7.930790e-01 -5.869030e-01 -1.542101e-01 -2.018620e-02
1.930667e+11 3.154535e-02 -1.307632e-01 7.910020e-01 -5.830103e-01 7.927959e-01 -5.872523e-01 -1.543815e-01 -2.007692e-02
1.932000e+11 3.155727e-02 -1.309053e-01 7.907164e-01 -5.833497e-01 7.925126e-01 -5.876016e-01 -1.545528e-01 -1.996742e-02
1.933333e+11 3.156911e-02 -1.310474e-01 7.904307e-01 -5.836889e-01 7.922290e-01 -5.879507e-01 -1.547242e-01 -1.985771e-02
1.934667e+11 3.158088e-02 -1.311897e-01 7.901448e-01 -5.840280e-01 7.919452e-01 -5.882996e-01 -1.548956e-01 -1.974778e-02
1.936000e+11 3.159257e-02 -1.313320e-01 7.898587e-01 -5.843669e-01 7.916611e-01 -5.886485e-01 -1.550669e-01 -1.963764e-02
1.937333e+11 3.160418e-02 -1.314744e-01 7.895725e-01 -5.847057e-01 7.913768e-01 -5.889972e-01 -1.552382e-01 -1.952727e-02
1.938667e+11 3.161571e-02 -1.316169e-01 7.892861e-01 -5.850443e-01 7.910922e-01 -5.893458e-01 -1.554095e-01 -1.941669e-02
1.940000e+11 3.162717e-02 -1.317595e-01 7.889995e-01 -5.853827e-01 7.908074e-01 -5.896942e-01 -1.555808e-01 -1.930590e-02
1.941333e+11 3.163854e-02 -1.319022e-01 7.887128e-01 -5.857211e-01 7.905223e-01 -5.900426e-01 -1.557521e-01 -1.919489e-02
1.942667e+11 3.164984e-02 -1.320449e-01 7.884259e-01 -5.860592e-01 7.902370e-01 -5.903908e-01 -1.559233e-01 -1.908367e-02
1.944000e+11 3.166106e-02 -1.321878e-01 7.881389e-01 -5.863973e-01 7.899514e-01 -5.907389e-01 -1.560946e-01 -1.897223e-02
1.945333e+11 3.167220e-02 -1.323307e-01 7.878517e-01 -5.867352e-01 7.896656e-01 -5.910868e-01 -1.562658e-01 -1.886057e-02
1.946667e+11 3.168326e-02 -1.324738e-01 7.875643e-01 -5.870729e-01 7.893795e-01 -5.914346e-01 -1.564370e-01 -1.874870e-02
1.948000e+11 3.169424e-02 -1.326169e-01 7.872768e-01 -5.874105e-01 7.890932e-01 -5.917823e-01 -1.566082e-01 -1.863661e-02
1.949333e+11 3.170514e-02 -1.327601e-01 7.869891e-01 -5.877479e-01 7.888066e-01 -5.921298e-01 -1.567794e-01 -1.852431e-02
1.950667e+11 3.171596e-02 -1.329034e-01 7.867013e-01 -5.880852e-01 7.885198e-01 -5.924772e-01 -1.569506e-01 -1.841179e-02
1.952000e+11 3.172670e-02 -1.330467e-01 7.864133e-01 -5.884224e-01 7.882327e-01 -5.928245e-01 -1.571217e-01 -1.829906e-02
1.953333e+11 3.173737e-02 -1.331902e-01 7.861251e-01 -5.887594e-01 7.879454e-01 -5.931716e-01 -1.572929e-01 -1.818612e-02
1.954667e+11 3.174795e-02 -1.333337e-01 7.858368e-01 -5.890963e-01 7.876578e-01 -5.935186e-01 -1.574640e-01 -1.807296e-02
1.956000e+11 3.175845e-02 -1.334774e-01 7.855483e-01 -5.894330e-01 7.873699e-01 -5.938655e-01 -1.576351e-01 -1.795958e-02
1.957333e+11 3.176886e-02 -1.336211e-01 7.852597e-01 -5.897696e-01 7.870818e-01 -5.942122e-01 -1.578062e-01 -1.784599e-02
1.958667e+11 3.177920e-02 -1.337649e-01 7.849709e-01 -5.901061e-01 7.867935e-01 -5.945587e-01 -1.579773e-01 -1.773219e-02
1.960000e+11 3.178946e-02 -1.339088e-01 7.846820e-01 -5.904424e-01 7.865049e-01 -5.949051e-01 -1.581484e-01 -1.761817e-02
1.961333e+11 3.179964e-02 -1.340527e-01 7.843929e-01 -5.907786e-01 7.862160e-01 -5.952514e-01 -1.583194e-01 -1.750394e-02
1.962667e+11 3.180973e-02 -1.341968e-01 7.841037e-01 -5.911146e-01 7.859269e-01 -5.955975e-01 -1.584905e-01 -1.738949e-02
1.964000e+11 3.181974e-02 -1.343409e-01 7.838143e-01 -5.914506e-01 7.856375e-01 -5.959435e-01 -1.586615e-01 -1.727483e-02
1.965333e+11 3.182967e-02 -1.344851e-01 7.835247e-01 -5.917863e-01 7.853479e-01 -5.962893e-01 -1.588325e-01 -1.715996e-02
1.966667e+11 3.183952e-02 -1.346294e-01 7.832350e-01 -5.921220e-01 7.850580e-01 -5.966350e-01 -1.590035e-01 -1.704487e-02
1.968000e+11 3.184929e-02 -1.347738e-01 7.829451e-01 -5.924575e-01 7.847679e-01 -5.969805e-01 -1.591745e-01 -1.692957e-02
1.969333e+11 3.185897e-02 -1.349183e-01 7.826551e-01 -5.927929e-01 7.844775e-01 -5.973259e-01 -1.593455e-01 -1.681406e-02
1.970667e+11 3.186858e-02 -1.350629e-01 7.823649e-01 -5.931282e-01 7.841869e-01 -5.976711e-01 -1.595165e-01 -1.669833e-02
1.972000e+11 3.187810e-02 -1.352075e-01 7.820745e-01 -5.934633e-01 7.838960e-01 -5.980162e-01 -1.596875e-01 -1.658239e-02
1.973333e+11 3.188753e-02 -1.353522e-01 7.817840e-01 -5.937983e-01 7.836048e-01 -5.983611e-01 -1.598584e-01 -1.646623e-02
1.974667e+11 3.189689e-02 -1.354970e-01 7.814933e-01 -5.941332e-01 7.833134e-01 -5.987058e-01 -1.600293e-01 -1.634986e-02
1.976000e+11 3.190616e-02 -1.356419e-01 7.812025e-01 -5.944679e-01 7.830217e-01 -5.990504e-01 -1.602003e-01 -1.623328e-02
1.977333e+11 3.191535e-02 -1.357869e-01 7.809116e-01 -5.948025e-01 7.827298e-01 -5.993948e-01 -1.603712e-01 -1.611648e-02
1.978667e+11 3.192446e-02 -1.359319e-01 7.806204e-01 -5.951370e-01 7.824377e-01 -5.997391e-01 -1.605421e-01 -1.599947e-02
1.980000e+11 3.193349e-02 -1.360770e-01 7.803291e-01 -5.954714e-01 7.821452e-01 -6.000832e-01 -1.607130e-01 -1.588225e-02
1.981333e+11 3.194243e-02 -1.362222e-01 7.800377e-01 -5.958056e-01 7.818526e-01 -6.004271e-01 -1.608839e-01 -1.576481e-02
1.982667e+11 3.195129e-02 -1.363675e-01 7.797461e-01 -5.961398e-01 7.815597e-01 -6.007709e-01 -1.610547e-01 -1.564716e-02
1.984000e+11 3.196006e-02 -1.365129e-01 7.794543e-01 -5.964738e-01 7.812665e-01 -6.011145e-01 -1.612256e-01 -1.552929e-02
1.985333e+11 3.196876e-02 -1.366584e-01 7.791624e-01 -5.968077e-01 7.809730e-01 -6.014579e-01 -1.613965e-01 -1.541121e-02
1.986667e+11 3.197737e-02 -1.368039e-01 7.788703e-01 -5.971414e-01 7.806794e-01 -6.018012e-01 -1.615673e-01 -1.529292e-02
1.988000e+11 3.198590e-02 -1.369495e-01 7.785781e-01 -5.974751e-01 7.803854e-01 -6.021443e-01 -1.617381e-01 -1.517442e-02
1.989333e+11 3.199434e-02 -1.370952e-01 7.782857e-01 -5.978086e-01 7.800913e-01 -6.024872e-01 -1.619090e-01 -1.505570e-02
1.990667e+11 3.200270e-02 -1.372410e-01 7.779932e-01 -5.981420e-01 7.797968e-01 -6.028299e-01 -1.620798e-01 -1.493676e-02
1.992000e+11 3.201098e-02 -1.373868e-01 7.777005e-01 -5.984753e-01 7.795021e-01 -6.031725e-01 -1.622506e-01 -1.481761e-02
1.993333e+11 3.201918e-02 -1.375328e-01 7.774076e-01 -5.988085e-01 7.792072e-01 -6.035149e-01 -1.624214e-01 -1.469825e-02
1.994667e+11 3.202729e-02 -1.376788e-01 7.771146e-01 -5.991416e-01 7.789120e-01 -6.038571e-01 -1.625922e-01 -1.457868e-02
1.996000e+11 3.203532e-02 -1.378249e-01 7.768214e-01 -5.994746e-01 7.786166e-01 -6.041992e-01 -1.627630e-01 -1.445889e-02
1.997333e+11 3.204327e-02 -1.379710e-01 7.765280e-01 -5.998074e-01 7.783210e-01 -6.045410e-01 -1.629338e-01 -1.433888e-02
1.998667e+11 3.205113e-02 -1.381173e-01 7.762345e-01 -6.001402e-01 7.780250e-01 -6.048827e-01 -1.631045e-01 -1.421866e-02
2.000000e+11 3.205891e-02 -1.382636e-01 7.759409e-01 -6.004728e-01 7.777289e-01 -6.052242e-01 -1.632753e-01 -1.409823e-02
