#   Hz   S  RI   R   50
!
0.0 0.005273946858763783 0.0 0.994943564154727 0.0 0.9949021483638806 0.0 0.005314706090772001 0.0
100000000.0 0.005274173944978718 3.5778513881605965e-06 0.9949428300000859 -0.0008969534703894174 0.9949014323756847 -0.0008957360170341077 0.00531491716231946 2.440526175335101e-06
200000000.0 0.0052748551058819145 7.146664129937344e-06 0.9949406277298837 -0.0017938906471424503 0.9948992845879494 -0.0017914568380455243 0.005315550292580591 4.872929642004896e-06
300000000.0 0.0052759900483124135 1.0697404302337151e-05 0.9949369579251278 -0.0026907952471157915 0.9948957055310962 -0.0026871472764427792 0.005316605228461366 7.289091613917043e-06
400000000.0 0.0052775782838796 1.4221047425302543e-05 0.994931821553655 -0.003587651008142709 0.9948906960887102 -0.003582792164488287 0.00531808154830843 9.680901147166659e-06
500000000.0 0.005279619129279608 1.7708583173722665e-05 0.9949252199693633 -0.004484441699497135 0.9948842574968568 -0.004478376362704252 0.005319978662163297 1.2040259053637536e-05
600000000.0 0.0052821117067401915 2.1151020078040753e-05 0.9949171549111454 -0.005381151132328953 0.9948763913431363 -0.005373884769253103 0.005322295812118262 1.4359081805802444e-05
700000000.0 0.0052850549445885965 2.453939020975017e-05 0.9949076285015106 -0.006277763170060819 0.9948670995654639 -0.0062693023292842345 0.005325032072775144 1.6629305429581853e-05
800000000.0 0.005288447577945427 2.7864753847829978e-05 0.9948966432449119 -0.007174261738736799 0.9948563844505818 -0.007164614044238672 0.005328186351800941 1.8842889382332338e-05
900000000.0 0.005292288149545726 3.11182041229051e-05 0.9948842020257662 -0.00807063083731381 0.9948442486323066 -0.008059804981103199 0.005331757390587342 2.0991820413298382e-05
1000000000.0 0.005296575010678806 3.429087163467887e-05 0.9948703081061813 -0.008966854547886116 0.9948306950895096 -0.008954860281606197 0.0053357437650070755 2.3068116403174456e-05
1100000000.0 0.0053013063222566185 3.737392903965494e-05 0.9948549651233835 -0.009862917045833395 0.9948157271438377 -0.009849765171346172 0.005340143886272038 2.5063830180462667e-05
1200000000.0 0.005306480055998188 4.035859560519448e-05 0.9948381770868543 -0.010758802609883718 0.9947993484571679 -0.010744504968845936 0.005344956001885696 2.6971053311278572e-05
1300000000.0 0.005312093995740636 4.323614172631236e-05 0.9948199483751731 -0.011654495632082599 0.9947815630288133 -0.011639065094523487 0.005350178196695639 2.878191985994819e-05
1400000000.0 0.005318145738863779 4.5997893401797705e-05 0.9948002837325801 -0.012549980627656998 0.9947623751924634 -0.012533431079572627 0.005355808394041241 3.0488610118051116e-05
1500000000.0 0.00532463269783603 4.8635236666162265e-05 0.99477918826525 -0.01344524224476888 0.9947417896128845 -0.013427588574744466 0.005361844356994314 3.208335429818695e-05
1600000000.0 0.005331552101876094 5.11396219737961e-05 0.9947566674372875 -0.014340265274147045 0.9947198112823631 -0.014321523359023265 0.005368283689697857 3.3558436191067335e-05
1700000000.0 0.00533890099872853 5.350256853228587e-05 0.9947327270664513 -0.01523503465858902 0.9946964455169081 -0.015215221348188616 0.0053751238387918995 3.490619678199139e-05
1800000000.0 0.005346676256552992 5.5715668581492054e-05 0.994707373319606 -0.016129535502325695 0.9946716979522133 -0.01610866860325626 0.00538236209493557 3.611903782517853e-05
1900000000.0 0.005354874565923918 5.777059161454202e-05 0.9946806127079046 -0.01702375308023996 0.9946455745393835 -0.01700185133879098 0.005389995594415907 3.718942537267264e-05
2000000000.0 0.005363492441939309 5.965908853886898e-05 0.9946524520817197 -0.017917672846930455 0.9946180815404294 -0.017894755931084 0.005398021320844715 3.810989325555583e-05
2100000000.0 0.005372526226437864 6.137299577282423e-05 0.9946228986253096 -0.018811280445614472 0.9945892255235298 -0.018787368926188697 0.005406436106944241 3.887304651541503e-05
2200000000.0 0.005381972090319093 6.290423927585668e-05 0.9945919598512432 -0.01970456171686033 0.9945590133580818 -0.019679677047806394 0.005415236636415953 3.947156478299414e-05
2300000000.0 0.005391826035967833 6.42448385085916e-05 0.9945596435945747 -0.020597502707143448 0.9945274522095237 -0.020571667205018053 0.005424419445892463 3.989820560227144e-05
2400000000.0 0.0054020838997767325 6.53869103205425e-05 0.9945259580067867 -0.021490089677218115 0.9944945495339538 -0.02146332649985288 0.005433980926972466 4.0145807697402406e-05
2500000000.0 0.005412741354769879 6.63226727624401e-05 0.9944909115494976 -0.022382309110297798 0.9944603130725354 -0.022354642234690112 0.005443917328333166 4.0207294180576935e-05
2600000000.0 0.005423793913319278 6.704444882057983e-05 0.9944545129879454 -0.023274147720038694 0.9944247508457081 -0.023245601919486335 0.005454224757922274 4.007567569840947e-05
2700000000.0 0.005435236929954217 6.754467007016845e-05 0.9944167713842564 -0.024165592458317176 0.9943878711471994 -0.024136193278823215 0.005464899185223688 3.974405351512296e-05
2800000000.0 0.005447065604262592 6.781588024598595e-05 0.9943776960904979 -0.02505663052279884 0.9943496825378493 -0.025026404258770275 0.00547593644359869 3.920562253051829e-05
2900000000.0 0.005459274983877678 6.785073872785681e-05 0.9943372967415297 -0.02594724936428943 0.9943101938392512 -0.025916223033557513 0.005487332232697212 3.845367423040079e-05
3000000000.0 0.005471859967550622 6.764202393740422e-05 0.994295583247662 -0.026837436693863827 0.9942694141272166 -0.026805638012052043 0.005499082120937144 3.7481599567923436e-05
3100000000.0 0.005484815308303346 6.71826366456696e-05 0.9942525657871136 -0.02772718048976829 0.994227352725071 -0.02769463784403453 0.005511181548055588 3.628289177502655e-05
3200000000.0 0.005498135616663062 6.646560318868785e-05 0.9942082547983029 -0.028616469004088613 0.9941840191967863 -0.028583211426270606 0.005523625827717848 3.48511491001768e-05
3300000000.0 0.005511815363969121 6.548407858885715e-05 0.9941626609719524 -0.029505290769181087 0.9941394233399531 -0.029471347908373666 0.005536410150194513 3.318007747310959e-05
3400000000.0 0.005525848885754913 6.423134958021557e-05 0.9941157952430336 -0.030393634603861304 0.9940935751786079 -0.03035903669845277 0.005549529585097555 3.126349309400537e-05
3500000000.0 0.0055402303851997455 6.270083753695703e-05 0.9940676687825533 -0.0312814896193454 0.9940464849559165 -0.031246267468544982 0.005562979084172782 2.9095324944875615e-05
3600000000.0 0.0055549539366447406 6.088610130170763e-05 0.994018292989185 -0.032168845224941504 0.9939981631267176 -0.03213303015982511 0.00557675348414611 2.6669617223905075e-05
3700000000.0 0.005570013489176154 5.878083991383829e-05 0.9939676794807671 -0.03305569113348564 0.9939486203499449 -0.03301931498759215 0.00559084750962852 2.398053169930914e-05
3800000000.0 0.005585402870265451 5.6378895235086e-05 0.9939158400856593 -0.033942017366520034 0.9938978674809206 -0.033905112446027265 0.005605255776065625 2.1022349983459747e-05
3900000000.0 0.005601115789469023 5.36742544723355e-05 0.9938627868339769 -0.034827814259210395 0.9938459155635405 -0.034790413312722035 0.005619972792738211 1.778947572493987e-05
4000000000.0 0.005617145842179237 5.066105259405374e-05 0.9938085319487099 -0.03571307246499827 0.9937927758223489 -0.03567520865297371 0.005634992965807972 1.4276436717491584e-05
4100000000.0 0.005633486513430365 4.7333574643528856e-05 0.9937530878367314 -0.036597782959987314 0.9937384596545155 -0.03655948982384429 0.005650310601404205 1.0477886925863836e-05
4200000000.0 0.0056501311817447105 4.368625794256324e-05 0.9936964670797085 -0.03748193704705933 0.9936829786217221 -0.037443248477982506 0.0056659199087543966 6.388608427305391e-06
4300000000.0 0.005667073123032344 3.971369418973161e-05 0.9936386824249176 -0.03836552635972157 0.99362634444196 -0.038326476567206245 0.00568181500334965 2.0035132679951285e-06
4400000000.0 0.0056843055145222015 3.54106314486144e-05 0.9935797467759818 -0.039248542865677936 0.9935685689812569 -0.039209166345843594 0.005697989910146268 -2.6823547673225436e-06
4500000000.0 0.0057018214387372125 3.077197602835157e-05 0.993519673183533 -0.040130978870127516 0.9935096642453306 -0.04009131037383188 0.00571443856680046 -7.673818470279332e-06
4600000000.0 0.005719613887499995 2.5792794253198577e-05 0.9934584748358054 -0.041012827018788583 0.9934496423711803 -0.0409729015195727 0.0057311548269335395 -1.2975565612229977e-05
4700000000.0 0.005737675765972896 2.0468314123141965e-05 0.9933961650491772 -0.041894080300643934 0.993388515618627 -0.04185393296254204 0.005748132463424564 -1.859214743375841e-05
4800000000.0 0.005755999896721357 1.4793926863852623e-05 0.9933327572586585 -0.04277473205041045 0.9933262963618049 -0.04273439819565567 0.005765365171725941 -2.452797722226445e-05
4900000000.0 0.005774579023804984 8.76518836568555e-06 0.9932682650083446 -0.043654775950731875 0.9932629970806129 -0.043614291027390624 0.005782846573205653 -3.0787328977504596e-05
5000000000.0 0.005793405816888231 2.377820512545043e-06 0.9932027019418332 -0.04453420603409319 0.993198630352136 -0.04449360558365681 0.005800570218505147 -3.737433616389121e-05
5100000000.0 0.005812472875369661 -4.3722876003201865e-06 0.9931360817926211 -0.04541301668445799 0.9931332088420415 -0.045372336309427413 0.005818529590918445 -4.4292990552008916e-05
5200000000.0 0.005831772732525362 -1.1489078559396442e-05 0.9930684183744881 -0.046291202638629805 0.9930667452959582 -0.046250477970121454 0.005836718109783886 -5.15471411477278e-05
5300000000.0 0.005851297859664457 -1.8976325634764175e-05 0.9929997255718704 -0.04716875898733734 0.9929992525308455 -0.04712802565274238 0.005855129133889406 -5.914049320808385e-05
5400000000.0 0.0058710406702921335 -2.6837631895062175e-05 0.9929300173302397 -0.04804568117604457 0.9929307434263629 -0.04800497476677267 0.005873755964886275 -6.707660734742878e-05
5500000000.0 0.005890993524277842 -3.507642942898296e-05 0.9928593076464897 -0.04892196500548706 0.9928612309162371 -0.04888132104482545 0.005892591850714141 -7.53588987273654e-05
5600000000.0 0.00591114873202846 -4.3695978678177115e-05 0.9927876105593443 -0.04979760663193821 0.9927907279796516 -0.04975706054305446 0.005911629989025631 -8.399063633805746e-05
5700000000.0 0.005931498558655091 -5.269936787822651e-05 0.9927149401397891 -0.05067260256720112 0.9927192476326444 -0.050632189641323606 0.005930863530620523 -9.297494236189232e-05
5800000000.0 0.0059520352281414906 -6.208951260746858e-05 0.9926413104815378 -0.05154694967833806 0.9926468029195392 -0.05150670504313867 0.005950285582873851 -0.00010231479162798087
5900000000.0 0.005972750927501549 -7.186915544283588e-05 0.9925667356915385 -0.05242064518712866 0.9925734069044051 -0.05238060377533985 0.00596988921316692 -0.00011201301114810273
6000000000.0 0.005993637810930925 -8.204086572325988e-05 0.9924912298805386 -0.05329368666926644 0.9924990726625597 -0.053253883187562696 0.005989667452312338 -0.00012207227974102297
6100000000.0 0.0060146880039407885 -9.260703941737791e-05 0.9924148071536901 -0.0541660720532965 0.9924238132721114 -0.05412654095146624 0.006009613297971936 -0.00013249512774076786
6200000000.0 0.0060358936074818735 -0.00010356989909633991 0.9923374816012366 -0.05503779961929254 0.9923476418055633 -0.054998575059727 0.006029719718067723 -0.0001432839367868591
6300000000.0 0.006057246702046463 -0.00011493149401031492 0.9922592672892592 -0.05590886799728083 0.992270571321467 -0.05586998382481172 0.006049979654181106 -0.0001544409397005093
6400000000.0 0.006078739351750577 -0.00012669370026631422 0.9921801782505085 -0.056779276165411285 0.9921926148561495 -0.056740765877521034 0.006070386024940322 -0.00016596822044077109
6500000000.0 0.006100363608392459 -0.00013885822110936623 0.9921002284753189 -0.057649023447883224 0.9921137854155069 -0.057610920165313655 0.0060909317293912245 -0.0001778677141431936
6600000000.0 0.006122111515486027 -0.00015142658729999796 0.9920194319026152 -0.058518109512623116 0.9920340959668739 -0.058480445950410895 0.0061116096503525275 -0.00019014120723911786
6700000000.0 0.006143975112263662 -0.00016440015759451528 0.9919378024110198 -0.05938653436872662 0.9919535594309845 -0.059349342807687194 0.006132412657751708 -0.0002027903376538066
6800000000.0 0.006165946437650365 -0.00017778011931765433 0.9918553538100636 -0.06025429836366022 0.9918721886740115 -0.06021761062234866 0.006153333611940376 -0.00021581659508282644
6900000000.0 0.006188017534202156 -0.00019156748903505997 0.9917720998315098 -0.06112140218023315 0.9917899964997086 -0.06108524958740267 0.006174365366985561 -0.0002292213213470641
7000000000.0 0.006210180452009425 -0.0002057631133178788 0.9916880541207949 -0.06198784683334191 0.9917069956416479 -0.061952260200924474 0.00619550077393826 -0.00024300571082291962
7100000000.0 0.0062324272525626275 -0.00022036766959879014 0.9916032302285923 -0.06285363366649002 0.991623198755566 -0.06281864326312186 0.006216732684074486 -0.00025717081094720883
7200000000.0 0.0062547500125787105 -0.00023538166712130102 0.9915176416025087 -0.06371876434809076 0.9915386184118176 -0.06368439987320579 0.006238053952108475 -0.0002717175227973916
7300000000.0 0.006277140827781561 -0.0002508054479765276 0.9914313015789108 -0.06458324086755637 0.991453267087946 -0.06454953142606551 0.006259457439375705 -0.0002866466017435024
7400000000.0 0.0062995918166418126 -0.0002666391882278104 0.9913442233748968 -0.06544706553117755 0.9913671571613746 -0.06541403960875876 0.0062809360169853844 -0.00030195865817069965
7500000000.0 0.006322095124068634 -0.00028288289912165883 0.9912564200804104 -0.06631024095780118 0.9912803009022223 -0.06627792639681619 0.006302482568938474 -0.0003176541582737665
7600000000.0 0.006344642925052195 -0.00029953642838158713 0.9911679046505049 -0.06717277007430746 0.9911927104662472 -0.06714119405036773 0.006324089995213299 -0.0003337334249187368
7700000000.0 0.006367227428259252 -0.00031659946158377536 0.9910786898977686 -0.06803465611089661 0.9911043978879291 -0.06800384511009332 0.006345751214812969 -0.0003501966385718559
7800000000.0 0.006389840879571886 -0.000334071523615064 0.9909887884849015 -0.06889590259618511 0.9910153750736796 -0.06886588239300664 0.006367459168775859 -0.00036704383829614393
7900000000.0 0.006412475565576222 -0.0003519519802066993 0.9908982129174623 -0.06975651335212298 0.9909256537952092 -0.06972730898806746 0.006389206823149316 -0.00038427492281040013
8000000000.0 0.006435123816994611 -0.00037024003954505086 0.9908069755367829 -0.07061649248873059 0.9908352456830248 -0.07058812825164165 0.006410987171920177 -0.00040188965161206097
8100000000.0 0.006457778012062519 -0.000388934753957151 0.9907150885130539 -0.07147584439866884 0.9907441622200881 -0.07144834380279785 0.006432793239906517 -0.0004198876461624909
8200000000.0 0.00648043057984316 -0.00040803502166871956 0.9906225638385882 -0.07233457375164122 0.9906524147356179 -0.07230795951846124 0.006454618085604439 -0.0004382683911306675
8300000000.0 0.006503074003486377 -0.0004275395886318669 0.9905294133212653 -0.07319268548863715 0.9905600143990586 -0.07316697952841389 0.006476454803994911 -0.0004570312356974084
8400000000.0 0.006525700823424913 -0.00044744705042144367 0.9904356485781585 -0.07405018481602162 0.9904669722141975 -0.07402540821016212 0.006498296529299585 -0.0004761753949154561
8500000000.0 0.006548303640507016 -0.00046775585419720986 0.990341281029346 -0.07490707719948013 0.9903732990134534 -0.07488325018366346 0.006520136437698889 -0.0004956999511245923
8600000000.0 0.006570875119068475 -0.0004884643007312691 0.9902463218919191 -0.07576336835781518 0.9902790054523256 -0.07574051030592527 0.006541967749995545 -0.0005156038554234767
8700000000.0 0.006593407989935791 -0.0005095705464959854 0.9901507821741756 -0.07661906425661527 0.9901841020040103 -0.07659719366547899 0.006563783734235209 -0.0005358859291902598
8800000000.0 0.006615895053368394 -0.0005310726058144172 0.9900546726700132 -0.07747417110178889 0.9900885989541901 -0.07745330557673437 0.006585577708277202 -0.0005565448656566459
8900000000.0 0.006638329181928895 -0.0005529683530660677 0.9899580039535217 -0.07832869533297564 0.9899925063959967 -0.07830885157421873 0.006607343042315406 -0.0005775792315319906
9000000000.0 0.006660703323289011 -0.0005752555249496951 0.9898607863737702 -0.07918264361684162 0.9898958342251436 -0.07916383740670775 0.006629073161348026 -0.0005989874686718366
9100000000.0 0.006683010502966704 -0.0005979317228015801 0.9897630300498023 -0.08003602284026315 0.9897985921352411 -0.08001826903125295 0.006650761547599134 -0.0006207678957973273
9200000000.0 0.00670524382699226 -0.0006209944149615907 0.9896647448658361 -0.08088884010340223 0.9897007896132872 -0.08087215260710928 0.006672401742885654 -0.0006429187102535761
9300000000.0 0.006727396484504196 -0.0006444409391932121 0.9895659404666635 -0.08174110271268831 0.9896024359353389 -0.08172549448957152 0.006693987350933045 -0.0006654379898183985
9400000000.0 0.006749461750277014 -0.0006682685051487044 0.9894666262532649 -0.08259281817370098 0.989503540162366 -0.08257830122372134 0.006715512039638984 -0.0006883236945463015
9500000000.0 0.0067714329871732684 -0.0006924741968790482 0.9893668113786296 -0.08344399418396921 0.9894041111362897 -0.08343057953809296 0.006736969543282288 -0.0007115736686547111
9600000000.0 0.006793303648526973 -0.0007170549753905391 0.9892665047437862 -0.08429463862569121 0.989304157476203 -0.08428233633826139 0.006758353664678934 -0.0007351856424508807
9700000000.0 0.0068150672804529275 -0.0007420076812394642 0.9891657149940458 -0.08514475955837407 0.989203687574776 -0.08513357870035981 0.0067796582772821695 -0.0007591572342917007
9800000000.0 0.006836717524083946 -0.0007673290371669228 0.989064450515459 -0.08599436521141052 0.9891027095948516 -0.08598431386452841 0.0068008773272296924 -0.000783485952582895
9900000000.0 0.006858248117731574 -0.0007930156507729879 0.9889627194314796 -0.08684346397658929 0.9890012314662269 -0.08683454922830382 0.0068220048353352285 -0.0008081691978091734
10000000000.0 0.0068796528989786675 -0.0008190640172230928 0.9888605295998508 -0.08769206440055145 0.9888992608826194 -0.08768429233995356 0.006843034899022581 -0.0008332042645980478
10100000000.0 0.006900925806692746 -0.0008454705219898473 0.9887578886097004 -0.08854017517719194 0.9887968052988231 -0.08853355089175773 0.006863961694206197 -0.0008585883438150466
10200000000.0 0.006922060882966831 -0.0008722314436253372 0.9886548037788462 -0.08938780514002358 0.988693871928059 -0.0893823327132457 0.006884779477117362 -0.0008843185246864505
10300000000.0 0.0069430522749871736 -0.0008993429565620748 0.9885512821513283 -0.09023496325449387 0.9885904677395034 -0.0902306457643963 0.00690548258606651 -0.0009103917969530751
10400000000.0 0.006963894236824656 -0.0009268011339428182 0.9884473304951406 -0.09108165861027505 0.9884865994560155 -0.09107849812879555 0.006926065443159981 -0.000936805053046481
10500000000.0 0.00698458113115187 -0.0009546019504750072 0.9883429553001868 -0.0919279004135246 0.9883822735520466 -0.09192589800677378 0.006946522555951193 -0.000963555090294471
10600000000.0 0.0070051074308861185 -0.000982741285308058 0.9882381627764472 -0.09277369797912477 0.9882774962517423 -0.09277285370850945 0.006966848519040008 -0.0009906386131461455
10700000000.0 0.007025467720757756 -0.0010112149249332926 0.988132958852356 -0.0936190607229059 0.9881722735272304 -0.09361937364712013 0.006987038015612752 -0.0010180522354231178
10800000000.0 0.007045656698802326 -0.0010400185661025281 0.9880273491733949 -0.09446399815386267 0.9880666110970984 -0.09446546633173195 0.007007085818928699 -0.0010457924825870682
10900000000.0 0.007065669177779607 -0.0010691478187664417 0.9879213391008956 -0.09530851986636046 0.9879605144250577 -0.09531114036054804 0.007026986793746099 -0.0010738557940309914
11000000000.0 0.007085500086519916 -0.0010985982090259494 0.9878149337110537 -0.09615263553235022 0.9878539887187932 -0.09615640441390208 0.007046735897694301 -0.0011022385253864656
11100000000.0 0.007105144471190825 -0.0011283651821007972 0.9877081377941546 -0.09699635489358276 0.9877470389289997 -0.0970012672473201 0.0070663281825869 -0.001130936950846424
11200000000.0 0.0071245974964963266 -0.0011584441053088873 0.9876009558540022 -0.09783968775384036 0.9876396697486042 -0.0978457376845816 0.007085758795680683 -0.001159947265505409
11300000000.0 0.007143854446796935 -0.0011888302710573921 0.9874933921075616 -0.09868264397118587 0.987531885612169 -0.09868982461079419 0.007105022980876987 -0.00118926558771379
11400000000.0 0.007162910727160458 -0.001219518899840781 0.9873854504848024 -0.09952523345022946 0.9874236906954805 -0.09953353696547894 0.0071241160798653095 -0.001218887961442498
11500000000.0 0.007181761864336539 -0.0012505051432498261 0.9872771346287478 -0.1003674661344303 0.9873150889153168 -0.10037688373567655 0.007143033533213112 -0.0012488103586621334
11600000000.0 0.007200403507658779 -0.0012817840869821591 0.9871684478957268 -0.10120935199842543 0.9872060839293978 -0.10121987394907624 0.007161770881398854 -0.0012790286817299134
11700000000.0 0.007218831429877556 -0.0013133507538588298 0.9870593933558247 -0.10205090104040085 0.9870966791365119 -0.10206251666717277 0.007180323765788381 -0.0013095387657871768
11800000000.0 0.007237041527916521 -0.0013452001068439644 0.9869499737935363 -0.10289212327450666 0.9869868776768195 -0.10290482097845584 0.007198687929555675 -0.0013403363811647102
11900000000.0 0.007255029823560906 -0.0013773270520628746 0.9868401917086108 -0.10373302872331337 0.9868766824323334 -0.10374679599163464 0.007216859218551193 -0.0013714172357931719
12000000000.0 0.007272792464072242 -0.0014097264418217149 0.9867300493170934 -0.1045736274103304 0.9867660960275715 -0.10458845082890565 0.007234833582110173 -0.001402776977620528
12100000000.0 0.007290325722734391 -0.0014423930776232706 0.9866195485525641 -0.10541392935257712 0.9866551208303831 -0.10542979461926376 0.0072526070738110895 -0.0014344111970336472
12200000000.0 0.007307625999328859 -0.001475321713178121 0.9865086910675541 -0.10625394455321555 0.9865437589529391 -0.10627083649186328 0.0072701758521763705 -0.0014663154292818073
12300000000.0 0.007324689820540271 -0.001508507057412984 0.986397478235164 -0.10709368299425502 0.9864320122528996 -0.10711158556943275 0.007287536181321131 -0.0014984851569033258
12400000000.0 0.00734151384029342 -0.0015419437774704852 0.9862859111508572 -0.10793315462932165 0.9863198823347387 -0.10795205096174558 0.007304684431545215 -0.0015309158121538404
12500000000.0 0.007358094840021633 -0.0015756265017002598 0.9861739906344386 -0.10877236937651004 0.986207370551235 -0.10879224175915446 0.00732161707987586 -0.0015636027794327417
12600000000.0 0.007374429728868489 -0.001609549822640288 0.9860617172322148 -0.10961133711131228 0.9860944780051277 -0.10963216702618825 0.00733833071055456 -0.0015965413977088012
12700000000.0 0.00739051554382046 -0.0016437082999901406 0.9859490912193289 -0.11045006765963061 0.9859812055509232 -0.11047183579522109 0.007354822015470729 -0.0016297269629454653
12800000000.0 0.0074063494497753676 -0.0016780964635669847 0.985836112602267 -0.11128857079088167 0.9858675537968662 -0.11131125706020924 0.007371087794545441 -0.001663154730520705
12900000000.0 0.00742192873954323 -0.0017127088162509115 0.9857227811215424 -0.11212685621119005 0.9857535231070607 -0.11215043977050998 0.007387124956061841 -0.001696819917643393
13000000000.0 0.007437250833784282 -0.0017475398369157596 0.985609096254544 -0.11296493355668302 0.985639113603741 -0.11298939282477675 0.007402930516943702 -0.0017307177057657634
13100000000.0 0.007452313280879828 -0.0017825839833399896 0.9854950572185442 -0.11380281238688097 0.9855243251696951 -0.11382812506493684 0.0074185016029840265 -0.001764843242986727
13200000000.0 0.00746711375674297 -0.0018178356951050508 0.9853806629738785 -0.11464050217819644 0.9854091574508318 -0.11466664527026009 0.007433835449022979 -0.0017991916464519223
13300000000.0 0.007481650064562492 -0.001853289396468428 0.9852659122272772 -0.11547801231753908 0.9852936098588903 -0.11550496215151317 0.007448929399074289 -0.0018337580047424198
13400000000.0 0.007495920134489818 -0.0018889394992245882 0.9851508034353513 -0.11631535209603347 0.9851776815742935 -0.11634308434520937 0.007463780906404153 -0.0018685373802568603
13500000000.0 0.007509922023259144 -0.0019247804055367566 0.9850353348082361 -0.11715253070285064 0.9850613715491345 -0.11718102040795508 0.007478387533558744 -0.0019035248115821096
13600000000.0 0.007523653913752039 -0.001960806510751471 0.9849195043133732 -0.11798955721916161 0.9849446785103008 -0.11801877881089459 0.007492746952344769 -0.001938715315855271
13700000000.0 0.007537114114497655 -0.0019970122061878093 0.984803309679448 -0.1188264406122092 0.9848276009627279 -0.11885636793425829 0.007506856943760937 -0.0019741038911103895
13800000000.0 0.007550301059119083 -0.002033391881902337 0.9846867484004587 -0.11966318972950803 0.984710137192784 -0.11969379606201513 0.007520715397881687 -0.00200968551861821
13900000000.0 0.007563213305718638 -0.002069939929427143 0.984569817739928 -0.12049981329316976 0.984592285271777 -0.12053107137663661 0.007534320313693602 -0.002045455165207249
14000000000.0 0.007575849536205932 -0.0021066507444834574 0.9844525147352479 -0.1213363198943671 0.9844740430595851 -0.12136820195396668 0.007547669798886004 -0.0020814077855750074
14100000000.0 0.0075882085555702096 -0.0021435187296645706 0.9843348362021501 -0.12217271798792026 0.9843554082084071 -0.12220519575821083 0.007560762069593678 -0.0021175383245820665
14200000000.0 0.007600289291098796 -0.0021805382970924796 0.9842167787393075 -0.12300901588703417 0.9842363781666261 -0.12304206063703699 0.007573595450095401 -0.0021538417195308824
14300000000.0 0.007612090791538294 -0.002217703871042774 0.9840983387330552 -0.12384522175816448 0.9841169501827881 -0.12387880431679756 0.007586168372467437 -0.0021903129024290397
14400000000.0 0.007623612226204565 -0.0022550098905391226 0.9839795123622281 -0.12468134361603436 0.9839971213096876 -0.12471543439787322 0.007598479376189939 -0.002226946802234965
14500000000.0 0.0076348528840378006 -0.002292450811917704 0.9838602956031159 -0.12551738931879194 0.9838768884085597 -0.12555195835013713 0.007610527107713027 -0.0022637383470853166
14600000000.0 0.007645812172607955 -0.0023300211113549156 0.983740684234524 -0.12635336656331642 0.9837562481533729 -0.12638838350854953 0.007622310319975476 -0.0023006824665038937
14700000000.0 0.007656489617066973 -0.0023677152873659833 0.9836206738429437 -0.12718928288067669 0.9836351970352252 -0.12722471706887653 0.007633827871883944 -0.002337774093591503
14800000000.0 0.007666884859053566 -0.002405527863266027 0.9835002598278223 -0.12802514563173867 0.9835137313668242 -0.1280609660835395 0.007645078727747167 -0.002375008167196558
14900000000.0 0.007676997655547035 -0.0024434533895970134 0.983379437406931 -0.12886096200292996 0.9833918472870753 -0.12889713745759887 0.007656061956668928 -0.002412379634062709
15000000000.0 0.007686827877673504 -0.0024814864465174244 0.9832582016218262 -0.1296967390021603 0.983269540765741 -0.12973323794486896 0.007666776731900662 -0.002449883450957548
15100000000.0 0.00769637550946452 -0.0025196216461558147 0.9831365473433991 -0.13053248345489876 0.9831468076081958 -0.13056927414417038 0.007677222330152468 -0.0024875145867774553
15200000000.0 0.00770564064657243 -0.0025578536349255376 0.9830144692775098 -0.1313682020004148 0.9830236434602562 -0.1314052524957189 0.007687398130864266 -0.0025252680246300985
15300000000.0 0.007714623494935714 -0.0025961770958021118 0.9828919619707064 -0.13220390108817817 0.9829000438130896 -0.13224117927765328 0.007697303615436035 -0.0025631387638946376
15400000000.0 0.0077233243694040275 -0.002634586750559696 0.9827690198160105 -0.13303958697442492 0.9827760040081946 -0.13307706060270574 0.007706938366422768 -0.0026011218222562016
15500000000.0 0.007731743692319009 -0.002673077361967801 0.9826456370587845 -0.13387526571888633 0.9826515192424524 -0.13391290241501044 0.007716302066685282 -0.002639212237717101
15600000000.0 0.007739881992051209 -0.0027116437359463053 0.9825218078026577 -0.13471094318168647 0.9825265845732433 -0.13474871048706058 0.007725394498509357 -0.002677405070581052
15700000000.0 0.007747739901499174 -0.0027502807236816115 0.9823975260155221 -0.13554662502040818 0.9824011949236237 -0.13558449041680512 0.007734215542683349 -0.002715695405413753
15800000000.0 0.007755318156545564 -0.0027889832236964616 0.982272785535581 -0.1363823166873252 0.9822753450875623 -0.1364202476248965 0.007742765177540739 -0.0027540783529751206
15900000000.0 0.007762617594474415 -0.002827746183877934 0.9821475800774523 -0.13721802342680756 0.9821490297352279 -0.13725598735207942 0.007751043477966825 -0.002792549052124414
16000000000.0 0.00776963915235212 -0.0028665646034645095 0.9820219032383253 -0.13805375027289724 0.982022243418331 -0.13809171465673234 0.007759050614370039 -0.002831102671699473
16100000000.0 0.007776383865370384 -0.002905433534984969 0.9818957485041552 -0.1388895020470563 0.9818949805755097 -0.13892743441255753 0.007766786851618686 -0.002869734412365376
16200000000.0 0.00778285286515153 -0.0029443480861546787 0.9817691092559019 -0.13972528335608742 0.9817672355377556 -0.1397631513064175 0.00777425254794232 -0.002908439508437076
16300000000.0 0.007789047378022494 -0.0029833034217236947 0.9816419787758052 -0.1405610985902274 0.9816390025338817 -0.14059886983632455 0.007781448153801903 -0.002947213229667738
16400000000.0 0.0077949687232507945 -0.003022294765282587 0.9815143502536853 -0.14139695192141752 0.9815102756960226 -0.14143459430958116 0.00778837421072472 -0.0029860508830134476
16500000000.0 0.007800618311251831 -0.0030613174010177234 0.9813862167932772 -0.14223284730174413 0.9813810490651645 -0.14227032884107074 0.007795031350109296 -0.003024947814363379
16600000000.0 0.007805997641761196 -0.0031003666754218138 0.9812575714185792 -0.14306878846205962 0.9812513165967051 -0.14310607735170114 0.007801420291997853 -0.003063899410238414
16700000000.0 0.007811108301979108 -0.003139437998955576 0.981128407080223 -0.14390477891077263 0.9811210721660302 -0.14394184356700107 0.007807541843817545 -0.0031029010994622092
16800000000.0 0.007815951964681782 -0.0031785268476599965 0.980998716661856 -0.14474082193281698 0.9809903095741147 -0.14477763101586663 0.007813396899092113 -0.0031419483547953414
16900000000.0 0.00782053038630959 -0.0032176287647227076 0.9808684929865268 -0.14557692058879623 0.9808590225531333 -0.14561344302946394 0.007818986436125072 -0.0031810366945412487
17000000000.0 0.007824845405022743 -0.003256739361992125 0.9807377288230815 -0.14641307771430126 0.9807272047720849 -0.14644928274028243 0.007824311516651153 -0.003220161684115856
17100000000.0 0.007828898938734518 -0.0032958543214432552 0.9806064168925496 -0.14724929591940195 0.9805948498424216 -0.1472851530813394 0.007829373284463174 -0.003259318937585295
17200000000.0 0.007832692983117529 -0.0033349693965933655 0.9804745498745322 -0.1480855775883168 0.980461951323681 -0.14812105678553986 0.00783417296400954 -0.0032985041191697963
17300000000.0 0.00783622960958808 -0.003374080413867126 0.9803421204135717 -0.14892192487925363 0.9803285027291171 -0.14895699638518836 0.007838711858965725 -0.0033377129447122616
17400000000.0 0.00783951096326438 -0.0034131832739097857 0.9802091211255115 -0.14975833972442198 0.9801944975313255 -0.14979297421165094 0.007842991350778318 -0.0033769411831125764
17500000000.0 0.00784253926090803 -0.003452273952851225 0.9800755446038346 -0.15059482383022504 0.9800599291678576 -0.1506289923951689 0.007847012897187543 -0.0034161846577265963
17600000000.0 0.007845316788841124 -0.0034913485035151398 0.9799413834259757 -0.15143137867761247 0.9799247910468252 -0.15146505286482365 0.007850778030720656 -0.003455439247727884
17700000000.0 0.007847845900845602 -0.003530403056579877 0.9798066301596062 -0.1522680055226153 0.9797890765524843 -0.15230115734865404 0.007854288357165467 -0.003494700889436252
17800000000.0 0.007850129016046087 -0.003569433821684927 0.9796712773688847 -0.1531047053970422 0.9796527790507985 -0.15313730737392017 0.007857545554018429 -0.0035339655776067173
17900000000.0 0.007852168616773219 -0.0036084370884844406 0.9795353176206704 -0.1539414791093484 0.9795158918949791 -0.15397350426751558 0.007860551368912404 -0.0035732293666830314
18000000000.0 0.007853967246412807 -0.003647409227648933 0.9793987434906912 -0.15477832724567034 0.9793784084309927 -0.15480974915652987 0.007863307618020848 -0.003612488372012825
18100000000.0 0.007855527507241103 -0.003686346691815442 0.9792615475696691 -0.15561525017102593 0.9792403220030401 -0.15564604296895695 0.007865816184443583 -0.003651738771026579
18200000000.0 0.007856852058245486 -0.0037252460164812194 0.9791237224693908 -0.15645224803068103 0.9791016259589925 -0.1564823864345464 0.007868079016571442 -0.0036909768043772288
18300000000.0 0.007857943612935066 -0.0037641038208466194 0.9789852608287244 -0.15728932075167493 0.9789623136557962 -0.15731878008580258 0.007870098126431541 -0.003730198777039558
18400000000.0 0.007858804937137259 -0.003802916808603468 0.9788461553195725 -0.15812646804450994 0.9788223784648237 -0.15815522425912523 0.007871875588015763 -0.003769401059376267
18500000000.0 0.007859438846789593 -0.0038416817686699003 0.9787063986527693 -0.15896368940499822 0.978681813777181 -0.15899171909608878 0.007873413535589605 -0.0038085800881577903
18600000000.0 0.007859848205717548 -0.0038803955758711225 0.9785659835838967 -0.15980098411626545 0.9785406130089659 -0.15982826454486854 0.00787471416198759 -0.00384773236754814
18700000000.0 0.007860035923410905 -0.003919055191567853 0.9784249029190412 -0.16063835125091053 0.9783987696064639 -0.16066486036179617 0.007875779716889351 -0.003886854470048564
18800000000.0 0.007860004952789348 -0.003957657664228781 0.9782831495204612 -0.16147578967331522 0.978256277051292 -0.16150150611305947 0.007876612505082111 -0.003925943037400705
18900000000.0 0.007859758287966988 -0.003996200129949829 0.9781407163121852 -0.16231329804210679 0.9781131288654747 -0.1623382011765312 0.007877214884712014 -0.0039649947814515835
19000000000.0 0.007859298962011627 -0.004034679812921267 0.9779975962855141 -0.1631508748127671 0.9779693186164597 -0.16317494474373564 0.007877589265516063 -0.004004006484976236
19100000000.0 0.007858630044701916 -0.004073094025837143 0.9778537825044442 -0.1639885182403868 0.9778248399220553 -0.16401173582194178 0.007877738107047819 -0.004042975002458739
19200000000.0 0.007857754640284776 -0.004111440170255695 0.9777092681109905 -0.16482622638256125 0.9776796864553038 -0.16484857323638621 0.007877663916887833 -0.004081897260836016
19300000000.0 0.007856675885231392 -0.004149715736901945 0.977564046330417 -0.165663997102429 0.977533851949274 -0.16568545563262532 0.007877369248844324 -0.0041207702601949794
19400000000.0 0.00785539694599649 -0.0041879183059178185 0.9774181104763662 -0.16650182807184163 0.9773873302017718 -0.16652238147900558 0.007876856701145431 -0.00415959107443299
19500000000.0 0.007853921016780452 -0.004226045547062012 0.9772714539558847 -0.1673397167746746 0.9772401150799738 -0.1673593490692629 0.007876128914620781 -0.004198356851874821
19600000000.0 0.007852251317291871 -0.004264095219849562 0.9771240702743406 -0.1681776605102625 0.9770922005249697 -0.168196356525235 0.007875188570875689 -0.004237064815846088
19700000000.0 0.007850391090521828 -0.004302065173646404 0.9769759530402294 -0.16901565639696436 0.9769435805562178 -0.1690334017996943 0.007874038390459867 -0.0042757122652094465
19800000000.0 0.00784834360051812 -0.004339953347703668 0.9768270959698707 -0.1698537013758545 0.9767942492759071 -0.16987048267929264 0.007872681131026184 -0.004314296574851618
19900000000.0 0.007846112130171907 -0.004377757771145923 0.976677492891978 -0.1706917922145307 0.9766442008732246 -0.1707075967876183 0.007871119585490081 -0.004352815196137717
20000000000.0 0.007843699979010238 -0.004415476562900781 0.9765271377521176 -0.17152992551104362 0.9764934296285233 -0.17154474158836183 0.007869356580178769 -0.004391265657313975
20100000000.0 0.007841110461002547 -0.00445310793158228 0.9763760246170364 -0.1723680976979359 0.9763419299173944 -0.1723819143885859 0.007867394972980255 -0.004429645563874485
20200000000.0 0.007838346902373347 -0.004490650175317665 0.9762241476788661 -0.17320630504639595 0.9761896962146241 -0.17321911234209958 0.007865237651490251 -0.0044679525988836405
20300000000.0 0.007835412639431969 -0.004528101681526361 0.9760715012591972 -0.17404454367051275 0.9760367230980574 -0.17405633245292967 0.007862887531156281 -0.004506184523255318
20400000000.0 0.007832311016414423 -0.004565460926645328 0.9759180798130205 -0.17488280953163843 0.9758830052523446 -0.174893571578892 0.007860347553420527 -0.0045443391759914355
20500000000.0 0.007829045383340958 -0.004602726475806783 0.9757638779325323 -0.17572109844284486 0.9757285374725787 -0.1757308264352523 0.007857620683866404 -0.004582414474377456
20600000000.0 0.007825619093888195 -0.004639896982462297 0.9756088903508002 -0.17655940607347692 0.9755733146678173 -0.17656809359847822 0.00785470991036313 -0.00462040841413519
20700000000.0 0.007822035503280807 -0.004676971187961183 0.9754531119452964 -0.1773977279537971 0.9754173318644909 -0.17740536951007832 0.007851618241214033 -0.004658319069534689
20800000000.0 0.007818297966199752 -0.004713947921076173 0.9752965377412754 -0.17823605947971405 0.9752605842096912 -0.1782426504805244 0.00784834870330753 -0.004696144593462524
20900000000.0 0.007814409834713392 -0.004750826097483988 0.9751391629150205 -0.17907439591759525 0.9751030669743379 -0.17907993269325168 0.00784490434027505 -0.00473388321744985
21000000000.0 0.007810374456224986 -0.004787604719195225 0.9749809827969323 -0.17991273240915565 0.9749447755562256 -0.1799172122087369 0.007841288210648199 -0.004771533251656421
21100000000.0 0.007806195171446515 -0.004824282873938596 0.9748219928744741 -0.18075106397642124 0.9747857054829429 -0.18075448496864735 0.00783750338602879 -0.0048090930848153236
21200000000.0 0.007801875312392522 -0.0048608597344976376 0.9746621887949659 -0.18158938552676146 0.9746258524146683 -0.181591746800061 0.007833552949261784 -0.004846561184134139
21300000000.0 0.007797418200400627 -0.004897334558002776 0.9745015663682238 -0.18242769185798535 0.974465212146834 -0.18242899341974825 0.00782943999261695 -0.004883936095156974
21400000000.0 0.007792827144174723 -0.00493370668517527 0.974340121569048 -0.1832659776634973 0.9743037806126672 -0.18326622043851856 0.007825167615980455 -0.004921216441582852
21500000000.0 0.007788105437857855 -0.004969975539530025 0.9741778505395509 -0.1841042375375117 0.9741415538855913 -0.18410342336562252 0.007820738925056426 -0.004958400925044778
21600000000.0 0.007783256359128844 -0.005006140626532429 0.9740147495913333 -0.18494246598031297 0.9739785281814992 -0.18494059761320666 0.007816157029577319 -0.004995488324849584
21700000000.0 0.007778283167330954 -0.005042201532712524 0.973850815207501 -0.1857806574035672 0.9738146998608969 -0.1857777385008221 0.007811425041528938 -0.005032477497674458
21800000000.0 0.007773189101627195 -0.005078157924736977 0.9736860440445188 -0.18661880613567186 0.9736500654309042 -0.18661484125997493 0.007806546073386492 -0.005069367377225727
21900000000.0 0.007767977379188419 -0.005114009548440463 0.9735204329339088 -0.18745690642714424 0.9734846215471227 -0.18745190103872025 0.007801523236364353 -0.005106156973857888
22000000000.0 0.00776265119341044 -0.00514975622781506 0.9733539788837862 -0.18829495245603978 0.9733183650153697 -0.1882889129062931 0.007796359638680672 -0.0051428453741526395
22100000000.0 0.007757213712166917 -0.005185397863961008 0.973186679080233 -0.18913293833340222 0.973151292793269 -0.1891258718577761 0.007791058383838236 -0.005179431740459289
22200000000.0 0.007751668076090957 -0.005220934433998249 0.9730185308885109 -0.189970858108731 0.9729834019917107 -0.18996277281879373 0.007785622568921305 -0.005215915310397713
22300000000.0 0.007746017396896294 -0.005256365989941499 0.9728495318541114 -0.1908087057754704 0.9728146898761628 -0.19079961065023412 0.007780055282907542 -0.0052522953963225864
22400000000.0 0.007740264755729194 -0.005291692657535473 0.9726796797036436 -0.19164647527650938 0.9726451538678514 -0.191636380152992 0.0077743596050014515 -0.005288571384749188
22500000000.0 0.007734413201559049 -0.0053269146350579015 0.97250897234556 -0.19248416050969225 0.9724747915447982 -0.19247307607273087 0.007768538602986912 -0.005324742735744617
22600000000.0 0.007728465749604163 -0.00536203219208542 0.9723374078707179 -0.19332175533332996 0.9723036006427141 -0.19330969310465626 0.007762595331595366 -0.0053608089822806656
22700000000.0 0.007722425379795511 -0.005397045668225721 0.9721649845527798 -0.19415925357171243 0.972131579055761 -0.19414622589830097 0.00775653283089969 -0.005396769729550583
22800000000.0 0.007716295035280887 -0.00543195547181824 0.9719917008484559 -0.19499664902061248 0.9719587248371665 -0.19498266906231304 0.007750354124726508 -0.0054326246542520116
22900000000.0 0.007710077620964117 -0.005466762078602062 0.9718175553975775 -0.19583393545278222 0.9717850361997027 -0.19581901716924976 0.007744062219093148 -0.005468373503833942
23000000000.0 0.00770377600208876 -0.005501466030353792 0.9716425470230157 -0.19667110662343104 0.9716105115160237 -0.1966552647603635 0.0077376601006658545 -0.005504016095709357
23100000000.0 0.007697393002857737 -0.00553606793349495 0.9714666747304388 -0.1975081562756837 0.9714351493188638 -0.1974914063503841 0.007731150735243823 -0.005539552316435046
23200000000.0 0.007690931405098522 -0.005570568457673598 0.9712899377079119 -0.19834507814601507 0.9712589483010992 -0.1983274364322904 0.0077245370662661714 -0.005574982120858513
23300000000.0 0.007684393946966653 -0.00560496833431483 0.9711123353253347 -0.19918186596965406 0.9710819073156695 -0.1991633494820658 0.007717822013346933 -0.005610305531230759
23400000000.0 0.007677783321693249 -0.0056392683551497935 0.9709338671337291 -0.20001851348595326 0.9709040253753611 -0.19999913996343507 0.0077110084708343005 -0.005645522636291398
23500000000.0 0.007671102176375389 -0.005673469370715437 0.9707545328643681 -0.20085501444372086 0.9707253016524603 -0.20083480233257966 0.007704099306397248 -0.005680633590317655
23600000000.0 0.0076643531108106355 -0.005707572288834367 0.9705743324277484 -0.20169136260650797 0.9705457354782626 -0.20167033104282614 0.007697097359641079 -0.005715638612148284
23700000000.0 0.007657538676371753 -0.005741578073069756 0.9703932659124193 -0.20252755175784945 0.9703653263424531 -0.2025057205493013 0.007690005440751199 -0.005750537984174854
23800000000.0 0.007650661374933041 -0.005775487741160223 0.9702113335836531 -0.20336357570645122 0.9701840738923546 -0.203340965313557 0.007682826329164714 -0.0057853320513053955
23900000000.0 0.007643723657832008 -0.005809302363434572 0.9700285358819719 -0.2041994282913236 0.9700019779320398 -0.20417605980815415 0.00767556277227327 -0.005820021219900724
24000000000.0 0.007636727924887139 -0.005843023061207694 0.9698448734215277 -0.20503510338685058 0.969819038421321 -0.20501099852120494 0.007668217484155396 -0.0058546059566827085
24100000000.0 0.0076296765234491895 -0.005876651005159175 0.9696603469883375 -0.2058705949077969 0.9696352554745978 -0.2058457759608693 0.007660793144341299 -0.005889086787617668
24200000000.0 0.007622571747510359 -0.005910187413694962 0.9694749575383799 -0.20670589681424473 0.9694506293595954 -0.20668038665980276 0.007653292396606576 -0.005923464296772265
24300000000.0 0.0076154158368496394 -0.00594363355129545 0.9692887061955454 -0.20754100311645735 0.9692651604959633 -0.2075148251795505 0.007645717847802101 -0.005957739125147633
24400000000.0 0.007608210976231002 -0.005976990726848799 0.9691015942494607 -0.20837590787966637 0.9690788494537601 -0.20834908611488467 0.007638072066712856 -0.005991911969487856
24500000000.0 0.007600959294645012 -0.006010260291971954 0.9689136231531694 -0.20921060522877782 0.9688916969518095 -0.2091831640980829 0.007630357582951492 -0.006025983581065731
24600000000.0 0.007593662864598189 -0.006043443639321597 0.9687247945206872 -0.2100450893529919 0.9687037038559478 -0.21001705380314134 0.0076225768858866885 -0.006059954764448352
24700000000.0 0.007586323701449019 -0.006076542200893229 0.9685351101244276 -0.2108793545103373 0.968514871177143 -0.21085074994992262 0.007614732423603891 -0.006093826376239313
24800000000.0 0.007578943762791448 -0.006109557446314451 0.9683445718925008 -0.2117133950321114 0.9683252000695058 -0.21168424730823313 0.007606826601903072 -0.006127599323803095
24900000000.0 0.007571524947884421 -0.006142490881128406 0.968153181905894 -0.2125472053272247 0.9681346918281916 -0.21251754070182693 0.007598861783327752 -0.006161274563968823
25000000000.0 0.007564069097128986 -0.006175344045072548 0.9679609423955289 -0.21338077988644785 0.9679433478871851 -0.21335062501233312 0.007590840286234306 -0.006194853101716014
25100000000.0 0.007556577991593393 -0.006208118510353228 0.9677678557392074 -0.2142141132865554 0.9677511698169821 -0.21418349518310464 0.007582764383891742 -0.006228335988844604
25200000000.0 0.007549053352582957 -0.006240815879915785 0.9675739244584416 -0.21504720019436432 0.9675581593221715 -0.21501614622298346 0.0075746363036235526 -0.0062617243226267445
25300000000.0 0.00754149684125898 -0.006273437785712498 0.9673791512151789 -0.21588003537066508 0.9673643182389051 -0.21584857320998227 0.007566458225981215 -0.0062950192444441045
25400000000.0 0.0075339100583021405 -0.00630598588697071 0.9671835388084187 -0.21671261367403896 0.9671696485322808 -0.21668077129487628 0.00755823228395628 -0.006328221938411101
25500000000.0 0.007526294543626316 -0.006338461868461149 0.966987090170731 -0.21754493006456505 0.9669741522936205 -0.2175127357047066 0.007549960562230238 -0.006361333629985261
25600000000.0 0.007518651776133954 -0.006370867438765789 0.9667898083646753 -0.21837697960740632 0.9667778317376615 -0.21834446174618866 0.007541645096459716 -0.006394355584562773
25700000000.0 0.007510983173520814 -0.0064032043285522 0.966591696579125 -0.219208757476279 0.9665806891996549 -0.21917594480902597 0.007533287872601282 -0.006427289106066427
25800000000.0 0.007503290092125341 -0.006435474288849451 0.9663927581255068 -0.22004025895679938 0.9663827271323797 -0.22000718036912606 0.007524890826271902 -0.006460135535520449
25900000000.0 0.007495573826825 -0.00646767908932949 0.9661929964339468 -0.22087147944970534 0.9661839481030721 -0.22083816399171544 0.007516455842149101 -0.006492896249616317
26000000000.0 0.007487835610976115 -0.006499820516596869 0.9659924150493401 -0.22170241447395356 0.965984354790276 -0.2216688913343529 0.007507984753406076 -0.00652557265927177
26100000000.0 0.007480076616398326 -0.006531900372483196 0.9657910176273437 -0.2225330596696869 0.9657839499806145 -0.22249935814983843 0.007499479341189029 -0.006558166208179783
26200000000.0 0.007472297953406453 -0.00656392047235458 0.9655888079302901 -0.2233634108010707 0.9655827365654926 -0.22332956028901524 0.007490941334128108 -0.006590678371354992
26300000000.0 0.007464500670883367 -0.006595882643424733 0.9653857898230381 -0.22419346375899976 0.9653807175377264 -0.22415949370346408 0.007482372407888924 -0.006623110653670224
26400000000.0 0.007456685756396378 -0.006627788723083148 0.96518196726875 -0.2250232145636686 0.9651778959881034 -0.22498915444808817 0.007473774184761891 -0.0066554645883926625
26500000000.0 0.007448854136360218 -0.006659640557232837 0.9649773443246191 -0.22585265936700835 0.9649742751018903 -0.22581853868358473 0.007465148233289481 -0.006687741735714268
26600000000.0 0.007441006676237722 -0.006691439998643544 0.9647719251375295 -0.22668179445498515 0.9647698581552671 -0.22664764267880652 0.007456496067930063 -0.006719943681280724
26700000000.0 0.007433144180785428 -0.0067231889053183235 0.9645657139396704 -0.22751061624976415 0.9645646485117187 -0.22747646281300715 0.007447819148762172 -0.006752072034719021
26800000000.0 0.007425267394340449 -0.0067548891388756966 0.9643587150441011 -0.22833912131172937 0.9643586496183645 -0.2283049955779699 0.007439118881224625 -0.006784128428163719
26900000000.0 0.00741737700114749 -0.006786542562949285 0.9641509328402706 -0.22916730634136934 0.964151865002246 -0.22913323758002319 0.007430396615894438 -0.006816114514785166
27000000000.0 0.007409473625724115 -0.006818151041606016 0.9639423717894982 -0.22999516818101673 0.9639442982665667 -0.22996118554193462 0.00742165364830268 -0.006848031967319443
27100000000.0 0.007401557833270216 -0.0068497164377793384 0.9637330364204226 -0.23082270381645142 0.96373595308689 -0.23078883630468897 0.007412891218788013 -0.006879882476598006
27200000000.0 0.007393630130110209 -0.006881240611726638 0.9635229313244158 -0.23164991037835678 0.9635268332073025 -0.23161618682914492 0.007404110512387355 -0.006911667750084416
27300000000.0 0.007385690964178801 -0.006912725419504656 0.9633120611509726 -0.23247678514363854 0.9633169424365415 -0.2324432341975743 0.007395312658760953 -0.006943389510413388
27400000000.0 0.007377740725538568 -0.006944172711467029 0.9631004306030824 -0.23330332553659727 0.9631062846440921 -0.23326997561507684 0.007386498732158563 -0.006975049493935635
27500000000.0 0.0073697797469397894 -0.006975584330785047 0.9628880444325779 -0.23412952912995907 0.9628948637562618 -0.2340964084108776 0.007377669751416092 -0.007006649449269551
27600000000.0 0.007361808304410276 -0.0070069621119895845 0.9626749074354704 -0.23495539364576606 0.9626826837522244 -0.23492253003950114 0.00736882667999502 -0.007038191135858018
27700000000.0 0.007353826617883725 -0.007038307879541276 0.9624610244472848 -0.23578091695611994 0.9624697486600557 -0.2357483380818236 0.007359970426051398 -0.0070696763225372074
27800000000.0 0.007345834851862075 -0.007069623446420851 0.9622464003383819 -0.23660609708378802 0.9622560625527472 -0.2365738302460055 0.007351101842542911 -0.007101106786109931
27900000000.0 0.007337833116107639 -0.007100910612749287 0.962031040009284 -0.2374309322026626 0.9620416295442062 -0.23739900436829886 0.007342221727370789 -0.007132484309932031
28000000000.0 0.007329821466370821 -0.007132171164432313 0.9618149483860036 -0.23825542063808355 0.9618264537852564 -0.23822385841373744 0.007333330823556224 -0.007163810682507683
28100000000.0 0.0073217999051479665 -0.007163406871832925 0.9615981304153832 -0.23907956086701798 0.961610539459626 -0.23904839047670254 0.007324429819449265 -0.007195087696097574
28200000000.0 0.007313768382469583 -0.007194619488472258 0.9613805910604447 -0.23990335151809927 0.9613938907799416 -0.23987259878136818 0.00731551934897385 -0.007226317145338081
28300000000.0 0.007305726796718534 -0.007225810749758328 0.9611623352957582 -0.24072679137153044 0.9611765119837203 -0.2406964816820276 0.007306599991903202 -0.007257500825874928
28400000000.0 0.007297674995475594 -0.007256982371745188 0.9609433681028303 -0.24154987935884573 0.9609584073293722 -0.241520037663298 0.007297672274169558 -0.007288640533010122
28500000000.0 0.007289612776394483 -0.007288136049920677 0.9607236944655189 -0.24237261456253917 0.9607395810922114 -0.24234326534020753 0.007288736668206744 -0.007319738060363223
28600000000.0 0.007281539888101005 -0.007319273458026177 0.9605033193654728 -0.24319499621555543 0.96052003756048 -0.24316616345816144 0.007279793593321237 -0.007350795198549104
28700000000.0 0.0072734560311212134 -0.007350396246906399 0.9602822477776117 -0.24401702370064915 0.9602997810313914 -0.24398873089279666 0.007270843416097622 -0.007381813733871707
28800000000.0 0.007265360858829659 -0.007381506043391328 0.9600604846656371 -0.2448386965496075 0.9600788158071926 -0.24481096664970983 0.007261886450831447 -0.007412795447034079
28900000000.0 0.007257253978427034 -0.007412604449210548 0.9598380349775847 -0.24566001444234895 0.9598571461912498 -0.24563286986408198 0.007252922959995618 -0.007443742111867537
29000000000.0 0.0072491349519334045 -0.00744369303993855 0.9596149036414248 -0.24648097720588621 0.9596347764841657 -0.2464544398001786 0.007243953154731646 -0.0074746554940767285
29100000000.0 0.0072410032972112 -0.007474773363974739 0.9593910955607047 -0.24730158481316616 0.959411710979922 -0.2472756758507436 0.007234977195372722 -0.007505537350006571
29200000000.0 0.007232858489001778 -0.007505846941557371 0.9591666156102503 -0.24812183738178462 0.9591879539620568 -0.2480965775362789 0.007225995191994673 -0.007536389425427457
29300000000.0 0.007224699959984591 -0.007536915263807813 0.9589414686319164 -0.24894173517257573 0.9589635096998834 -0.2489171445042137 0.007217007204991728 -0.007567213454339855
29400000000.0 0.0072165271018551835 -0.007567979791813161 0.9587156594303989 -0.24976127858808253 0.9587383824447442 -0.24973737652796757 0.007208013245680922 -0.007598011157801694
29500000000.0 0.007208339266420732 -0.007599041955739957 0.9584891927691102 -0.2505804681709082 0.9585125764263103 -0.25055727350590357 0.007199013276933063 -0.00762878424277606
29600000000.0 0.007200135766709192 -0.007630103153984977 0.9582620733661148 -0.25139930460195303 0.9582860958489253 -0.251376835460181 0.007190007213827223 -0.007659534401001229
29700000000.0 0.0071919158780987405 -0.0076611647523583655 0.95803430589014 -0.25221778869853184 0.9580589448880017 -0.25219606253549753 0.007180994924331594 -0.007690263307882796
29800000000.0 0.007183678839456891 -0.007692228083304225 0.9578058949566546 -0.25303592141238845 0.9578311276864648 -0.2530149549977393 0.0071719762300050454 -0.007720972621409864
29900000000.0 0.00717542385429606 -0.007723294445155084 0.9575768451240202 -0.25385370382759476 0.9576026483512549 -0.2538335132325238 0.007162950906728225 -0.00775166398109333
30000000000.0 0.007167150091940046 -0.007754365101421896 0.9573471608897264 -0.25467113715834666 0.9573735109498843 -0.2546517377436494 0.007153918685447716 -0.007782339006930303
30100000000.0 0.007158856688701915 -0.007785441280120129 0.957116846686698 -0.2554882227466572 0.9571437195070573 -0.25546962915144994 0.007144879252953305 -0.007812999298390163
30200000000.0 0.007150542749073281 -0.007816524173130803 0.9568859068796945 -0.25630496205994807 0.9569132780013466 -0.2562871881910537 0.007135832252664521 -0.007843646433428966
30300000000.0 0.007142207346919364 -0.00784761493559735 0.9566543457617861 -0.25712135668854386 0.956682190361946 -0.2571044157105536 0.0071267772854458405 -0.007874281967525305
30400000000.0 0.007133849526688488 -0.007878714685358479 0.9564221675509271 -0.2579374083430732 0.956450460465477 -0.25792131266909024 0.007117713910438315 -0.007904907432745708
30500000000.0 0.007125468304621118 -0.007909824502415928 0.956189376386609 -0.25875311885177715 0.956218092132873 -0.25873788013484583 0.007108641645910318 -0.007935524336832143
30600000000.0 0.007117062669971315 -0.007940945428439443 0.9559559763266193 -0.259568490157728 0.9559850891263386 -0.259554119282956 0.0070995599701243655 -0.007966134162320516
30700000000.0 0.007108631586229862 -0.007972078466304426 0.9557219713438841 -0.26038352431596656 0.9557514551463698 -0.2603700313933427 0.007090468322223727 -0.007996738365680201
30800000000.0 0.007100173992352993 -0.00800322457966899 0.9554873653234153 -0.2611982234905544 0.9555171938288683 -0.2611856178484632 0.007081366103135245 -0.008027338376486426
30900000000.0 0.007091688803994388 -0.008034384692581983 0.9552521620593534 -0.26201258995154725 0.9552823087423182 -0.2620008801309897 0.007072252676484523 -0.00805793559661492
31000000000.0 0.0070831749147383235 -0.008065559689130244 0.9550163652521134 -0.2628266260718948 0.95504680338505 -0.26281581982141083 0.0070631273695309195 -0.008088531399466818
31100000000.0 0.007074631197334723 -0.008096750413118069 0.9547799785056297 -0.26364033432426665 0.9548106811825872 -0.2636304385955643 0.007053989474111197 -0.00811912712922092
31200000000.0 0.007066056504935023 -0.008127957667782962 0.9545430053247133 -0.2644537172778095 0.9545739454850728 -0.2644447382221004 0.007044838247601672 -0.008149724100112757
31300000000.0 0.007057449672325763 -0.008159182215546177 0.9543054491125079 -0.2652667775948411 0.9543365995647842 -0.26525872055988503 0.007035672913887707 -0.008180323595743173
31400000000.0 0.007048809517164024 -0.008190424777795496 0.9540673131680567 -0.2660795180274771 0.9540986466137292 -0.26607238755533114 0.007026492664350339 -0.008210926868412932
31500000000.0 0.007040134841206133 -0.008221686034705432 0.9538286006839762 -0.2668919414142065 0.9538600897413388 -0.266885741239681 0.007017296658858039 -0.008241535138489053
31600000000.0 0.00703142443153563 -0.008252966625088193 0.9535893147442438 -0.2677040506764042 0.9536209319722415 -0.26769878372622435 0.0070080840267732055 -0.008272149593795049
31700000000.0 0.007022677061786398 -0.008284267146280343 0.9533494583220944 -0.2685158488147984 0.9533811762441313 -0.2685115172074663 0.006998853867965309 -0.008302771389034482
31800000000.0 0.007013891493360967 -0.008315588154062052 0.953109034278028 -0.269327338905885 0.9531408254057268 -0.26932394395224213 0.006989605253833893 -0.008333401645240032
31900000000.0 0.007005066476642581 -0.008346930162606798 0.9528680453579335 -0.27013852409829997 0.9528998822148264 -0.2701360663027863 0.00698033722833996 -0.008364041449250586
32000000000.0 0.006996200752200055 -0.008378293644468805 0.9526264941913261 -0.2709494076091504 0.9526583493364512 -0.270947886671755 0.006971048809041357 -0.00839469185322103
32100000000.0 0.006987293051986032 -0.008409679030596329 0.9523843832896953 -0.2717599927203064 0.952416229341088 -0.2717594075392053 0.006961738988138154 -0.008425353874155906
32200000000.0 0.0069783421005257295 -0.008441086710380763 0.9521417150449759 -0.2725702827746605 0.9521735247030251 -0.2725706314495385 0.006952406733521703 -0.00845602849347442
32300000000.0 0.006969346616096839 -0.00847251703173712 0.9518984917281276 -0.273380281172355 0.951930237798784 -0.2733815610084027 0.006943050989826542 -0.008486716656605156
32400000000.0 0.006960305311901013 -0.008503970301210301 0.9516547154878344 -0.2741899913669829 0.9516863709056516 -0.274192198879566 0.006933670679492481 -0.008517419272604633
32500000000.0 0.00695121689722116 -0.008535446784118614 0.9514103883493218 -0.2749994168617659 0.951441926200305 -0.2750025477817581 0.006924264703821591 -0.008548137213810442
32600000000.0 0.006942080078571507 -0.008566946704721044 0.9511655122132859 -0.2758085612057101 0.9511969057575356 -0.2758126104854809 0.006914831944044789 -0.008578871315517956
32700000000.0 0.006932893560831988 -0.008598470246418324 0.9509200888549443 -0.27661742798974814 0.9509513115490741 -0.27662238980980247 0.006905371262386237 -0.00860962237568888
32800000000.0 0.006923656048371408 -0.008630017551978578 0.9506741199232014 -0.27742602084286566 0.9507051454425101 -0.2774318886191207 0.00689588150313064 -0.008640391154683808
32900000000.0 0.006914366246157505 -0.00866158872379525 0.9504276069399304 -0.2782343434282181 0.9504584092003128 -0.2782411098199149 0.006886361493689828 -0.008671178375027969
33000000000.0 0.006905022860851654 -0.008693183824169594 0.9501805512993718 -0.2790423994392432 0.9502111044789493 -0.27905005635747737 0.006876810045670523 -0.008701984721200722
33100000000.0 0.00689562460188946 -0.008724802875621256 0.949932954267648 -0.27985019259576804 0.949963232828102 -0.27985873121263616 0.006867225955938669 -0.0087328108394542
33200000000.0 0.006886170182546037 -0.008756445861226349 0.9496848169823949 -0.28065772664011895 0.9497147956899836 -0.28066713739846405 0.0068576080076854645 -0.00876365733765993
33300000000.0 0.006876658320984779 -0.008788112724979954 0.9494361404525057 -0.28146500533323304 0.9494657943987528 -0.28147527795698396 0.006847954971487598 -0.008794524785182186
33400000000.0 0.0068670877412897995 -0.00881980337218472 0.9491869255579913 -0.2822720324507783 0.949216230180026 -0.2822831559558683 0.006838265606366715 -0.008825413712778113
33500000000.0 0.006857457174481742 -0.008851517669863914 0.9489371730499565 -0.2830788117792834 0.9489661041504879 -0.2830907744851361 0.006828538660844926 -0.008856324612525432
33600000000.0 0.006847765359514562 -0.008883255447199659 0.9486868835506829 -0.2838853471122807 0.948715417317601 -0.28389813665385605 0.006818772873994842 -0.008887257937777067
33700000000.0 0.006838011044255384 -0.008915016495991995 0.9484360575538309 -0.2846916422464676 0.9484641705794067 -0.2847052455868487 0.006808966976486761 -0.008918214103139
33800000000.0 0.0068281929864463685 -0.008946800571143755 0.948184695424751 -0.2854977009778861 0.9482123647244306 -0.28551210442139835 0.006799119691627814 -0.008949193484479182
33900000000.0 0.006818309954644536 -0.008978607391166186 0.9479327974009011 -0.28630352709812656 0.9479600004316807 -0.28631871630397515 0.00678922973639686 -0.008980196418958409
34000000000.0 0.006808360729144818 -0.00901043663870585 0.9476803635923784 -0.2871091243905564 0.9477070782707345 -0.28712508438696904 0.006779295822472438 -0.009011223205087038
34100000000.0 0.006798344102881568 -0.009042287961093413 0.9474273939825558 -0.2879144966265798 0.9474535987019306 -0.2879312118254385 0.00676931665725167 -0.009042274102809451
34200000000.0 0.0067882588823113535 -0.009074160970911372 0.9471738884288274 -0.28871964756192753 0.9471995620766497 -0.28873710177387746 0.006759290944864688 -0.00907334933360847
34300000000.0 0.006778103888272031 -0.009106055246582452 0.9469198466634561 -0.28952458093298306 0.9469449686376832 -0.2895427573830033 0.006749217387176566 -0.009104449080640358
34400000000.0 0.006767877956824099 -0.009137970332976406 0.9466652682945271 -0.2903293004531471 0.9466898185197011 -0.29034818179656746 0.006739094684783062 -0.00913557348888819
34500000000.0 0.006757579940066784 -0.009169905742034797 0.946410152807004 -0.29113380980924053 0.9464341117498073 -0.2911533781481907 0.006728921537996537 -0.009166722665342016
34600000000.0 0.006747208706935557 -0.009201860953413632 0.9461544995638832 -0.2919381126579528 0.9461778482481837 -0.29195834955822725 0.006718696647819413 -0.009197896679203113
34700000000.0 0.006736763143976357 -0.009233835415143365 0.9458983078074502 -0.2927422126223364 0.945921027828823 -0.29276309913065995 0.006708418716912308 -0.009229095562107261
34800000000.0 0.0067262421560953314 -0.009265828544302739 0.9456415766606306 -0.29354611328834873 0.945663650200348 -0.2935676299500251 0.0066980864505442285 -0.009260319308375349
34900000000.0 0.006715644667289918 -0.009297839727710826 0.9453843051284381 -0.2943498182014485 0.9454057149669202 -0.2943719450783781 0.006687698557536394 -0.009291567875283045
35000000000.0 0.006704969621353176 -0.009329868322632657 0.9451264920995182 -0.2951533308632402 0.9451472216292275 -0.2951760475522899 0.006677253751193345 -0.009322841183353551
35100000000.0 0.0066942159825566245 -0.00936191365749834 0.9448681363477762 -0.29595665472818206 0.9448881695855574 -0.2959799403798876 0.006666750750219322 -0.009354139116669847
35200000000.0 0.0066833827363100215 -0.00939397503263628 0.9446092365341058 -0.29675979320034834 0.9446285581329543 -0.2967836265379364 0.0066561882796233075 -0.009385461523211526
35300000000.0 0.006672468889795614 -0.009426051721019088 0.9443497912081951 -0.29756274963025015 0.9443683864684511 -0.2975871089689625 0.006645565071611115 -0.00941680821520792
35400000000.0 0.006661473472581946 -0.009458142969020684 0.9440897988104272 -0.2983655273117296 0.9441076536903847 -0.2983903905784262 0.006634879866463539 -0.009448178969514068
35500000000.0 0.0066503955372099145 -0.009490247997185845 0.9438292576738562 -0.2991681294789057 0.9438463587997846 -0.2991934742319395 0.006624131413399014 -0.009479573528005084
35600000000.0 0.0066392341597577955 -0.009522366001008047 0.9435681660262706 -0.2999705593032006 0.943584500701838 -0.29999636275253655 0.006613318471423223 -0.009510991597989503
35700000000.0 0.006627988440379496 -0.009554496151721508 0.9433065219923343 -0.30077281989042604 0.9433220782074301 -0.30079905891799386 0.006602439810163784 -0.009542432852642882
35800000000.0 0.00661665750382217 -0.009586637597097106 0.9430443235958013 -0.3015749142779485 0.9430590900347504 -0.301601565458206 0.006591494210688824 -0.009573896931457465
35900000000.0 0.006605240499915178 -0.009618789462249491 0.9427815687618106 -0.3023768454319207 0.9427955348109774 -0.3024038850526158 0.006580480466310945 -0.009605383440709497
36000000000.0 0.006593736604037755 -0.009650950850454127 0.9425182553192484 -0.3031786162445967 0.9425314110740227 -0.30320602032770233 0.006569397383373156 -0.009636891953947343
36100000000.0 0.006582145017561087 -0.009683120843967412 0.9422543810031818 -0.3039802295317162 0.9422667172743477 -0.30400797385452816 0.006558243782021699 -0.00966842201249235
36200000000.0 0.0065704649682652464 -0.009715298504855072 0.9419899434573609 -0.30478168802997346 0.9420014517768396 -0.3048097481463473 0.006547018496960497 -0.009699973125956345
36300000000.0 0.006558695710733721 -0.009747482875827367 0.9417249402367841 -0.3055829943945645 0.941735612862753 -0.3056113456562746 0.00653572037818743 -0.009731544772779082
36400000000.0 0.006546836526721457 -0.009779672981076883 0.9414593688103267 -0.3063841511968147 0.9414691987317109 -0.3064127687750216 0.006524348291716431 -0.009763136400775039
36500000000.0 0.006534886725499216 -0.009811867827123103 0.9411932265634295 -0.30718516092189246 0.9412022075037627 -0.30721401982869256 0.006512901120280397 -0.009794747427698267
36600000000.0 0.006522845644173893 -0.009844066403661327 0.9409265108008437 -0.307986025966606 0.9409346372215006 -0.3080151010766523 0.006501377764015529 -0.009826377241824115
36700000000.0 0.006510712647983078 -0.009876267684411574 0.9406592187494298 -0.30878674863728883 0.9406664858522249 -0.3088160147094598 0.006489777141130289 -0.009858025202538385
36800000000.0 0.006498487130567286 -0.009908470627971068 0.9403913475610127 -0.30958733114776743 0.9403977512901714 -0.3096167628468697 0.006478098188553382 -0.00988969064094429
36900000000.0 0.006486168514217653 -0.009940674178672032 0.9401228943152802 -0.31038777561742237 0.9401284313587768 -0.31041734753590816 0.006466339862566627 -0.009921372860482404
37000000000.0 0.006473756250097514 -0.009972877267436273 0.9398538560227325 -0.3111880840693383 0.9398585238129983 -0.3112177707490132 0.006454501139415785 -0.009953071137559562
37100000000.0 0.006461249818442328 -0.010005078812631622 0.939584229627675 -0.31198825842854183 0.9395880263416789 -0.3120180343822591 0.006442581015904502 -0.009984784722193578
37200000000.0 0.006448648728734859 -0.010037277720930448 0.9393140120112502 -0.31278830052033313 0.9393169365699539 -0.31281814025363985 0.006430578509969202 -0.010016512838666915
37300000000.0 0.006435952519856829 -0.010069472888165358 0.9390431999945105 -0.3135882120687102 0.9390452520616988 -0.31361809010144026 0.00641849266123545 -0.01004825468619028
37400000000.0 0.0064231607602171234 -0.010101663200182997 0.9387717903415269 -0.3143879946948844 0.9387729703220168 -0.3144178855826741 0.0064063225315528225 -0.01008000943957827
37500000000.0 0.006410273047856437 -0.010133847533699331 0.93849977976253 -0.31518764991589276 0.9385000887997621 -0.31521752827160376 0.006394067205512933 -0.010111776249935646
37600000000.0 0.006397289010528904 -0.010166024757148975 0.9382271649170799 -0.31598717914330116 0.9382266048900968 -0.31601701965833245 0.006381725790946764 -0.010143554245348152
37700000000.0 0.006384208305760235 -0.010198193731534006 0.9379539424172667 -0.3167865836820045 0.9379525159370834 -0.3168163611474773 0.006369297419401843 -0.010175342531588336
37800000000.0 0.006371030620885369 -0.010230353311267596 0.9376801088309352 -0.3175858647291255 0.9376778192363013 -0.31761555405692177 0.006356781246600579 -0.010207140192824824
37900000000.0 0.006357755673059501 -0.010262502345015318 0.9374056606849279 -0.3183850233730016 0.9374025120374956 -0.3184145996166412 0.0063441764528787675 -0.010238946292341369
38000000000.0 0.006344383209252104 -0.010294639676528742 0.9371305944683549 -0.3191840605922755 0.9371265915472484 -0.31921349896761425 0.006331482243602739 -0.010270759873262302
38100000000.0 0.00633091300621345 -0.010326764145477736 0.9368549066358706 -0.31998297725507857 0.936850054931674 -0.3200122531608107 0.0063186978495693765 -0.01030257995928453
38200000000.0 0.0063173448704235005 -0.010358874588274567 0.9365785936109738 -0.32078177411831105 0.9365728993191349 -0.32081086315626134 0.00630582252738195 -0.010334405555418421
38300000000.0 0.006303678638018541 -0.010390969838890528 0.9363016517893126 -0.3215804518270208 0.9362951218029741 -0.3216093298222053 0.006292855559810608 -0.010366235648727792
38400000000.0 0.006289914174694234 -0.010423048729670994 0.9360240775419982 -0.32237901091387605 0.9360167194442651 -0.32240765393432225 0.006279796256128672 -0.010398069209084508
38500000000.0 0.006276051375591351 -0.010455110092135827 0.9357458672189286 -0.3231774517987376 0.9357376892745751 -0.3232058361750415 0.006266643952429934 -0.010429905189916934
38600000000.0 0.006262090165157841 -0.010487152757779585 0.9354670171521084 -0.3239757747883237 0.935458028298739 -0.32400387713293616 0.0062533980119290344 -0.010461742528974013
38700000000.0 0.006248030496993334 -0.010519175558855476 0.9351875236589747 -0.3247739800759752 0.9351777334976429 -0.3248017773021934 0.006240057825235949 -0.010493580149080995
38800000000.0 0.006233872353670764 -0.01055117732915947 0.9349073830457163 -0.3255720677415167 0.9348968018310131 -0.325599537082172 0.0062266228106144 -0.010525416958909012
38900000000.0 0.006219615746541197 -0.01058315690479814 0.9346265916105907 -0.326370037751208 0.9346152302402115 -0.32639715677703574 0.006213092414219272 -0.01055725185374138
39000000000.0 0.006205260715519039 -0.010615113124949215 0.9343451456472294 -0.3271678899577975 0.9343330156510303 -0.3271946365954687 0.006199466110313839 -0.01058908371624145
39100000000.0 0.006190807328844115 -0.010647044832613233 0.9340630414479368 -0.32796562410066554 0.9340501549764907 -0.32799197665047447 0.00618574340146537 -0.010620911417226682
39200000000.0 0.006176255682833524 -0.010678950875352948 0.9337802753069724 -0.328763239806066 0.9337666451196324 -0.3287891769592518 0.0061719238187240835 -0.010652733816439778
39300000000.0 0.006161605901606981 -0.010710830106024291 0.9334968435238195 -0.3295607365874548 0.9334824829763069 -0.32958623744315224 0.006158006921778691 -0.010684549763322728
39400000000.0 0.006146858136798572 -0.010742681383491335 0.9332127424064318 -0.33035811384592034 0.9331976654379562 -0.3303831579277167 0.0061439922990944385 -0.010716358097789976
39500000000.0 0.0061320125672528515 -0.010774503573334614 0.9329279682744648 -0.33115537087069763 0.9329121893943885 -0.33117993814279284 0.006129879568029637 -0.010748157651000841
39600000000.0 0.006117069398697563 -0.01080629554854589 0.9326425174624775 -0.3319525068397796 0.9326260517365357 -0.3319765777227308 0.006115668374934638 -0.010779947246135001
39700000000.0 0.006102028863407572 -0.010838056190207569 0.9323563863231121 -0.3327495208206129 0.9323392493592064 -0.33277307620665475 0.006101358395229188 -0.010811725699160805
39800000000.0 0.006086891219847794 -0.010869784388162692 0.9320695712302438 -0.3335464117708883 0.932051779163815 -0.3335694330388146 0.006086949333460929 -0.0108434918196062
39900000000.0 0.006071656752300205 -0.010901479041671719 0.9317820685820988 -0.3343431785394176 0.9317636380610969 -0.3343656475690164 0.006072440923345377 -0.01087524441132757
40000000000.0 0.006056325770478507 -0.010933139060052829 0.9314938748043399 -0.33513981986709546 0.9314748229738035 -0.33516171905312364 0.00605783292778583 -0.01090698227327363
40100000000.0 0.0060408986091259 -0.010964763363311638 0.931204986353117 -0.3359363343879491 0.9311853308393744 -0.3359576466536376 0.006043125138874284 -0.010938704200247541
40200000000.0 0.006025375627598199 -0.010996350882754009 0.9309153997180774 -0.33673272063027493 0.9308951586125888 -0.33675342944035475 0.006028317377873647 -0.010970408983666663
40300000000.0 0.006009757209434377 -0.01102790056158814 0.9306251114253373 -0.337528977017853 0.9306043032681833 -0.3375490663910922 0.006013409495181845 -0.011002095412316776
40400000000.0 0.0059940437619118905 -0.011059411355507323 0.9303341180404108 -0.3383251018712479 0.9303127618034507 -0.3383445563924886 0.0059984013702758035 -0.011033762273102769
40500000000.0 0.005978235715590338 -0.011090882233261382 0.9300424161710928 -0.33912109340919 0.9300205312408033 -0.33913989824088026 0.005983292911638393 -0.011065408351794698
40600000000.0 0.005962333523841139 -0.011122312177211212 0.929750002470296 -0.3399169497500323 0.9297276086303051 -0.3399350906432403 0.005968084056666507 -0.011097032433768559
40700000000.0 0.005946337662367123 -0.011153700183868244 0.9294568736388381 -0.34071266891329116 0.9294339910521714 -0.34073013221819815 0.005952774771562552 -0.01112863330474165
40800000000.0 0.005930248628706858 -0.011185045264417154 0.9291630264281783 -0.34150824882125563 0.9291396756192309 -0.3415250214971149 0.005937365051204128 -0.011160209751500292
40900000000.0 0.005914066941731774 -0.011216346445226398 0.9288684576430994 -0.3423036873006779 0.9288446594793531 -0.3423197569252385 0.005921854919002288 -0.01119176056262562
41000000000.0 0.0058977931411296255 -0.01124760276833579 0.9285731641443379 -0.3430989820845321 0.9285489398178329 -0.34311433686291704 0.005906244426737313 -0.011223284529206746
41100000000.0 0.005881427786878852 -0.011278813291934368 0.9282771428511519 -0.3438941308138455 0.9282525138597362 -0.3439087595868774 0.005890533654379541 -0.01125478044555157
41200000000.0 0.005864971458712169 -0.01130997709081866 0.9279803907438343 -0.3446891310396002 0.9279553788722023 -0.3447030232915745 0.005874722709892087 -0.011286247109887123
41300000000.0 0.00584842475557301 -0.011341093256834137 0.927682904866164 -0.3454839802246983 0.9276575321667023 -0.34549712609059063 0.005858811729019897 -0.011317683325054015
41400000000.0 0.005831788295060126 -0.011372160899300682 0.9273846823277929 -0.34627867574599847 0.9273589711012509 -0.3462910660181097 0.005842800875058206 -0.011349087899190908
41500000000.0 0.005815062712865346 -0.011403179145419584 0.9270857203065714 -0.3470732148964098 0.9270596930825699 -0.3470848410304384 0.00582669033860808 -0.011380459646410965
41600000000.0 0.005798248662203585 -0.011434147140666227 0.9267860160508049 -0.3478675948870523 0.9267596955682019 -0.34787844900759196 0.0058104803373146665 -0.011411797387470552
41700000000.0 0.005781346813235865 -0.011465064049162522 0.9264855668814455 -0.3486618128494728 0.9264589760685766 -0.3486718877549347 0.005794171115591068 -0.011443099950426364
41800000000.0 0.005764357852483236 -0.011495929054033094 0.9261843701942126 -0.3494558658379219 0.926157532149023 -0.3494651550048769 0.005777762944324515 -0.01147436617128379
41900000000.0 0.00574728248223655 -0.011526741357744626 0.9258824234616451 -0.3502497508316842 0.9258553614317233 -0.35025824841861786 0.005761256120571057 -0.011505594894636775
42000000000.0 0.0057301214199591815 -0.011557500182426905 0.9255797242350791 -0.35104346473746195 0.925552461597622 -0.35105116558795274 0.005744650967232288 -0.011536784974294785
42100000000.0 0.005712875397684465 -0.011588204770175865 0.9252762701465541 -0.35183700439181 0.9252488303882673 -0.35184390403711485 0.005727947832719724 -0.011567935273900987
42200000000.0 0.0056955451614084125 -0.011618854383340666 0.9249720589106434 -0.35263036656362073 0.9249444656076043 -0.3526364612246791 0.005711147090604208 -0.011599044667537993
42300000000.0 0.005678131470477275 -0.01164944830479013 0.9246670883262116 -0.3534235479566541 0.924639365123704 -0.3534288345455025 0.0056942491392524075 -0.01163011204032419
42400000000.0 0.005660635096971789 -0.011679985838165052 0.9243613562780895 -0.35421654521211127 0.9243335268704342 -0.3542210213327126 0.005677254401448658 -0.011661136288996414
42500000000.0 0.005643056825087756 -0.011710466308109948 0.9240548607386772 -0.3550093549112547 0.924026948849067 -0.35501301885973974 0.0056601633240043565 -0.011692116322483433
42600000000.0 0.005625397450512713 -0.011740889060487156 0.9237475997694636 -0.35580197357806204 0.9237196291298304 -0.3558048243423891 0.005642976377355647 -0.011723051062462965
42700000000.0 0.00560765777980193 -0.011771253462574969 0.923439571522469 -0.35659439768192136 0.9234115658533874 -0.35659643494094945 0.005625694055146275 -0.011753939443911721
42800000000.0 0.0055898386297498085 -0.01180155890324723 0.9231307742416041 -0.3573866236403616 0.92310275723226 -0.3573878477623445 0.0056083168738005704 -0.011784780415638511
42900000000.0 0.0055719408267623245 -0.011831804793133085 0.9228212062639485 -0.35817864782181313 0.9227932015521818 -0.3581790598623146 0.005590845372084176 -0.011815572940806441
43000000000.0 0.0055539652062261 -0.011861990564762373 0.9225108660209469 -0.3589704665483995 0.9224828971733889 -0.35897006824763267 0.005573280110652376 -0.011846315997441246
43100000000.0 0.005535912611878331 -0.011892115672691706 0.9221997520395228 -0.35976207609875965 0.9221718425318414 -0.35976086987835426 0.005555621671589271 -0.011877008578927505
43200000000.0 0.005517783895175212 -0.011922179593612992 0.9218878629431053 -0.3605534727108916 0.9218600361403785 -0.3605514616700939 0.005537870657933807 -0.011907649694489165
43300000000.0 0.005499579914662513 -0.011952181826443456 0.9215751974525763 -0.36134465258502063 0.9215474765898062 -0.3613418404963299 0.0055200276931988675 -0.011938238369658094
43400000000.0 0.005481301535345108 -0.011982121892401084 0.9212617543871275 -0.362135611886489 0.9212341625499155 -0.3621320031907355 0.005502093420877078 -0.01196877364672677
43500000000.0 0.005462949628058051 -0.012011999335059843 0.9209475326650379 -0.3629263467486625 0.9209200927704313 -0.36292194654953186 0.00548406850393901 -0.011999254585189127
43600000000.0 0.0054445250688404485 -0.012041813720389859 0.9206325313043603 -0.3637168532758527 0.9206052660818925 -0.3637116673338639 0.0054659536243237125 -0.012029680262166182
43700000000.0 0.005426028738309564 -0.01207156463677784 0.920316749423526 -0.3645071275462512 0.9202896813964604 -0.3645011622721945 0.005447749482415749 -0.012060049772814167
43800000000.0 0.0054074615210398845 -0.01210125169503448 0.9200001862418613 -0.36529716561487835 0.9199733377086576 -0.36529042806271644 0.005429456796519446 -0.012090362230723205
43900000000.0 0.005388824304941915 -0.01213087452838117 0.9196828410800195 -0.36608696351653236 0.9196562340960371 -0.3660794613757787 0.005411076302321031 -0.012120616768296358
44000000000.0 0.005370117980648528 -0.012160432792422252 0.919364713360324 -0.3668765172687539 0.919338369719777 -0.36686825885632973 0.0053926087523467475 -0.012150812537116824
44100000000.0 0.005351343440901009 -0.012189926165100808 0.9190458026070294 -0.3676658228747855 0.9190197438252052 -0.36765681712636455 0.005374054915409266 -0.012180948708297274
44200000000.0 0.005332501579941895 -0.012219354346637163 0.9187261084464934 -0.36845487632653434 0.9187003557422566 -0.368445132787388 0.005355415576052711 -0.012211024472817588
44300000000.0 0.005313593292912241 -0.012248717059451191 0.9184056306072624 -0.3692436736075349 0.9183802048858505 -0.3692332024228825 0.00533669153398663 -0.012241039041841673
44400000000.0 0.005294619475252856 -0.012278014048070728 0.9180843689200753 -0.37003221069590464 0.918059290756205 -0.3700210226007796 0.005317883603518087 -0.012270991647025088
44500000000.0 0.005275581022112558 -0.012307245079021896 0.917762323317777 -0.37082048356729463 0.9177376129390707 -0.3708085898759353 0.0052989926129736135 -0.0123008815408018
44600000000.0 0.005256478827760743 -0.012336409940704837 0.9174394938351518 -0.3716084881978291 0.9174151711059041 -0.37159590079260757 0.005280019404121067 -0.012330707996658252
44700000000.0 0.005237313785007472 -0.012365508443254396 0.9171158806086679 -0.37239622056703514 0.9170919650139574 -0.3723829518869291 0.0052609648315835094 -0.01236047030939044
44800000000.0 0.005218086784629656 -0.012394540418386495 0.9167914838761416 -0.3731836766607569 0.9167679945063058 -0.37316973968938155 0.005241829762248956 -0.012390167795345849
44900000000.0 0.005198798714804097 -0.012423505719226922 0.9164663039763158 -0.3739708524740543 0.9164432595117992 -0.3739562607272606 0.005222615074677308 -0.012419799792647727
45000000000.0 0.005179450460548833 -0.012452404220130773 0.9161403413483565 -0.37475774401408307 0.9161177600449477 -0.3747425115271364 0.005203321658505063 -0.012449365661407384
45100000000.0 0.005160042903170665 -0.012481235816480843 0.9158135965312688 -0.37554434730295067 0.91579149620573 -0.37552848861730087 0.005183950413841676 -0.01247886478391448
45200000000.0 0.005140576919722762 -0.012510000424477731 0.9154860701632275 -0.37633065838055246 0.9154644681793396 -0.37631418853020954 0.005164502250671692 -0.012508296564817268
45300000000.0 0.005121053382468099 -0.012538697980914849 0.9151577629808333 -0.3771166733073816 0.9151366762358539 -0.3770996078049045 0.005144978088244862 -0.012537660431283232
45400000000.0 0.005101473158355127 -0.0125673284429371 0.9148286758182841 -0.37790238816730587 0.9148081207298427 -0.3778847429894254 0.005125378854474104 -0.012566955833144757
45500000000.0 0.005081837108498971 -0.01259589178779116 0.9144988096064715 -0.3786877990703215 0.9144788020999001 -0.37866959064320144 0.005105705485323571 -0.012596182243028704
45600000000.0 0.005062146087674795 -0.012624388012558272 0.9141681653719987 -0.3794729021552695 0.9141487208681159 -0.37945414733942656 0.005085958924202549 -0.012625339156469732
45700000000.0 0.0050424009438189655 -0.012652817133879515 0.9138367442361208 -0.3802576935925187 0.9138178776394744 -0.3802384096674108 0.0050661401213535325 -0.012654426092009162
45800000000.0 0.0050226025175412504 -0.012681179187662641 0.9135045474136141 -0.38104216958661147 0.913486273101193 -0.3810223742349105 0.005046250033244131 -0.012683442591274281
45900000000.0 0.005002751641647315 -0.012709474228784426 0.9131715762115651 -0.38182632637887165 0.9131539080219871 -0.3818060376704336 0.005026289621955837 -0.012712388219046538
46000000000.0 0.0049828491406708015 -0.01273770233077496 0.9128378320280933 -0.3826101602499692 0.9128207832512801 -0.38258939662551733 0.005006259854576143 -0.012741262563310535
46100000000.0 0.0049628958304185405 -0.0127658635854947 0.9125033163509998 -0.38339366752244514 0.9124868997183433 -0.3833724477769798 0.004986161702589917 -0.012770065235287118
46200000000.0 0.0049428925175227555 -0.012793958102798694 0.9121680307563451 -0.3841768445631884 0.9121522584313747 -0.38415518782913843 0.004965996141273357 -0.012798795869453344
46300000000.0 0.004922839999009096 -0.012821986010193248 0.9118319769069619 -0.38495968778586775 0.9118168604765168 -0.38493761351599853 0.004945764149088085 -0.012827454123545644
46400000000.0 0.0049027390618735815 -0.012849947452477839 0.9114951565508969 -0.3857421936533125 0.9114807070168146 -0.3857197216034086 0.0049254667070802475 -0.01285603967854593
46500000000.0 0.004882590482671787 -0.01287784259138049 0.9111575715197915 -0.3865243586798475 0.9111437992911126 -0.38650150889117957 0.004905104798278791 -0.01288455223865313
46600000000.0 0.004862395027120169 -0.012905671605184502 0.9108192237271955 -0.38730617943356843 0.9108061386128936 -0.38728297221516533 0.004884679407099193 -0.01291299153124262
46700000000.0 0.004842153449710056 -0.012933434688343386 0.9104801151668213 -0.3880876525385709 0.9104677263690617 -0.38806410844931016 0.004864191518751414 -0.012941357306805457
46800000000.0 0.004821866493332404 -0.012961132051088325 0.9101402479107351 -0.38886877467711717 0.9101285640186675 -0.3888449145076499 0.004843642118646061 -0.012969649338875124
46900000000.0 0.004801534888917699 -0.01298876391902805 0.9097996241074938 -0.38964954259174883 0.9097886530915833 -0.3896253873462754 0.004823032191812522 -0.012997867423940195
47000000000.0 0.00478115935508663 -0.013016330532740759 0.9094582459802202 -0.3904299530873403 0.9094479951871163 -0.3904055239652522 0.00480236272231544 -0.013026011381340746
47100000000.0 0.004760740597813364 -0.01304383214735695 0.9091161158246273 -0.391210003033091 0.9091065919725811 -0.39118532141049606 0.00478163469267892 -0.013054081053150835
47200000000.0 0.00474027931010363 -0.013071269032137288 0.9087732360069882 -0.3919896893644552 0.9087644451818121 -0.39196477677560054 0.004760849083314451 -0.01308207630404672
47300000000.0 0.004719776171684401 -0.01309864147004175 0.908429608962054 -0.3927690090850093 0.9084215566136331 -0.3927438872036205 0.00474000687195666 -0.013109997021160636
47400000000.0 0.004699231848708478 -0.013125949757294262 0.9080852371909246 -0.3935479592682563 0.9080779281302744 -0.393522649888806 0.004719109033101481 -0.013137843113920493
47500000000.0 0.004678646993469394 -0.01315319420293946 0.9077401232588715 -0.394326537059358 0.9077335616557516 -0.3943010620782835 0.004698156537453951 -0.013165614513876168
47600000000.0 0.00465802224413458 -0.01318037512839637 0.9073942697931129 -0.39510473967680826 0.9073884591741879 -0.3950791210736924 0.004677150351380549 -0.013193311174512194
47700000000.0 0.0046373582244865225 -0.013207492867003658 0.9070476794805535 -0.39588256441403175 0.9070426227281068 -0.3958568242327629 0.00465609143636894 -0.013220933071046255
47800000000.0 0.004616655543683484 -0.013234547763563857 0.9067003550654735 -0.39666000864091566 0.9066960544166744 -0.3966341689708447 0.004634980748495065 -0.013248480200215788
47900000000.0 0.0045959147960291736 -0.013261540173879906 0.9063522993471862 -0.39743706980527105 0.9063487563939057 -0.39741115276238037 0.0046138192378973215 -0.013275952580050404
48000000000.0 0.004575136560757735 -0.013288470464289449 0.9060035151776558 -0.39821374543422244 0.9060007308668313 -0.3981877731423224 0.004592607848259375 -0.013303350249632325
48100000000.0 0.004554321401833138 -0.013315339011195845 0.9056540054590819 -0.3989900331355242 0.9056519800936291 -0.3989640277074957 0.004571347516300881 -0.013330673268844968
48200000000.0 0.00453346986776435 -0.013342146200595036 0.9053037731414498 -0.39976593059880555 0.9053025063817223 -0.399739914117902 0.004550039171275522 -0.01335792171810784
48300000000.0 0.00451258249142888 -0.013368892427599331 0.904952821220054 -0.40054143559674005 0.9049523120858411 -0.4005154300979654 0.004528683734479201 -0.013385095698099907
48400000000.0 0.004491659789915157 -0.013395578095960557 0.9046011527329917 -0.40131654598614247 0.9046013996060577 -0.40129057343772156 0.004507282118766777 -0.013412195329473124
48500000000.0 0.004470702264378248 -0.013422203617589907 0.9042487707586297 -0.402091259708987 0.9042497713857877 -0.4020653419939433 0.004485835228077614 -0.01343922075255178
48600000000.0 0.0044497103999059425 -0.01344876941207579 0.9038956784130511 -0.4028655747933539 0.9038974299097685 -0.4028397336912108 0.004464343956970922 -0.013466172127022946
48700000000.0 0.004428684665404394 -0.01347527590620195 0.9035418788474797 -0.40363948935429644 0.9035443777020089 -0.4036137465229164 0.004442809190171462 -0.013493049631614622
48800000000.0 0.004407625513491068 -0.01350172353346371 0.9031873752456809 -0.4044130015946328 0.9031906173237145 -0.4043873785522111 0.004421231802124241 -0.01351985346376475
48900000000.0 0.0043865333804079774 -0.01352811273358346 0.9028321708213568 -0.4051861098056618 0.9028361513711936 -0.40516062791288715 0.004399612656560472 -0.013546583839278035
49000000000.0 0.004365408685942755 -0.013554443952027522 0.9024762688155145 -0.4059588123677978 0.9024809824737415 -0.4059334928101981 0.004377952606072998 -0.013573240991975473
49100000000.0 0.004344251833368897 -0.013580717639521902 0.9021196724938335 -0.4067311077511319 0.902125113291507 -0.4067059715216175 0.004356252491703147 -0.013599825173331479
49200000000.0 0.004323063209394883 -0.013606934251569735 0.9017623851440143 -0.40750299451591426 0.9017685465133412 -0.4074780623975324 0.004334513142539429 -0.013626336652103933
49300000000.0 0.004301843184129797 -0.013633094247968955 0.9014044100731272 -0.40827447131295636 0.9014112848546333 -0.40824976386187406 0.004312735375323737 -0.01365277571395376
49400000000.0 0.004280592111061196 -0.01365919809233203 0.9010457506049507 -0.4090455368839597 0.901053331055133 -0.40902107441268504 0.004290919994074815 -0.013679142661056465
49500000000.0 0.004259310327047125 -0.013685246251608163 0.9006864100773108 -0.4098161900617627 0.9006946878767641 -0.4097919926226222 0.004269067789716387 -0.013705437811705851
49600000000.0 0.004237998152318987 -0.013711239195605142 0.9003263918394149 -0.4105864297705113 0.9003353581014226 -0.4105625171393929 0.00424717953972295 -0.013731661499908093
49700000000.0 0.0042166558905025 -0.013737177396517182 0.899965699249195 -0.41135625502575396 0.8999753445287791 -0.41133264668613145 0.00422525600777411 -0.013757814074970077
49800000000.0 0.004195283828644632 -0.013763061328453131 0.8996043356706473 -0.41212566493445735 0.8996146499740646 -0.4121023800617082 0.004203297943420907 -0.013783895901079118
49900000000.0 0.004173882237259789 -0.013788891466967506 0.8992423044711815 -0.4128946586949445 0.8992532772658609 -0.4128717161409739 0.004181306081766744 -0.013809907356875172
50000000000.0 0.004152451370385631 -0.013814668288599096 0.8988796090189807 -0.41366323559676 0.8988912292438838 -0.41364065387494114 0.004159281143156927 -0.013835848835019123
50100000000.0 0.0041309914656500815 -0.013840392270407493 0.898516252680366 -0.4144313950204545 0.898528508756773 -0.4144091922909012 0.0041372238328843906 -0.0138617207417507
50200000000.0 0.0041095027443545035 -0.013866063889519234 0.8981522388171804 -0.4151991364372986 0.8981651186598802 -0.41517733049247796 0.00411513484090573 -0.013887523496444492
50300000000.0 0.00408798541156572 -0.013891683622674575 0.8977875707841835 -0.4159664594089161 0.8978010618130599 -0.415945067659615 0.004093014841569278 -0.013913257531156404
50400000000.0 0.004066439656220953 -0.013917251945782234 0.8974222519264639 -0.41673336358684787 0.8974363410784719 -0.4167124030485029 0.0040708644933591664 -0.013938923290169125
50500000000.0 0.004044865651244944 -0.013942769333475841 0.8970562855768733 -0.41749984871204115 0.8970709593183865 -0.4174793359914416 0.0040486844386481225 -0.013964521229527698
50600000000.0 0.004023263553679582 -0.01396823625868036 0.8966896750534792 -0.41826591461426316 0.896704919393001 -0.41824586589663976 0.004026475303465782 -0.01399005181657597
50700000000.0 0.004001633504821462 -0.013993653192178983 0.8963224236570403 -0.4190315612114447 0.8963382241582686 -0.41901199224795255 0.00400423769728021 -0.014015515529483574
50800000000.0 0.003979975630374927 -0.014019020602190907 0.895954534668513 -0.41979678850895474 0.8959708764637399 -0.41977771460455865 0.0039819722127906205 -0.0140409128567732
50900000000.0 0.003958290040612618 -0.014044338953952617 0.8955860113465777 -0.42056159659879944 0.8956028791504174 -0.42054303260057396 0.0039596794257339306 -0.014066244296842308
51000000000.0 0.003936576830550073 -0.014069608709305816 0.8952168569251994 -0.4213259856587568 0.8952342350486294 -0.421307945944605 0.003937359894706506 -0.014091510357481261
51100000000.0 0.003914836080126124 -0.01409483032629318 0.8948470746112183 -0.42208995595144017 0.8948649469759231 -0.42207245441924524 0.003915014160995024 -0.01411671155538979
51200000000.0 0.003893067854398348 -0.01412000425876188 0.8944766675819735 -0.42285350782329784 0.8944950177349719 -0.4228365578805094 0.0038926427484250016 -0.014141848415691848
51300000000.0 0.00387127220374477 -0.014145130955972075 0.894105638982962 -0.4236166417035405 0.8941244501115119 -0.4236002562572074 0.003870246163218894 -0.014166921471445484
51400000000.0 0.003849449164079251 -0.014170210862215036 0.8937339919255352 -0.42437935810301314 0.8937532468722955 -0.4243635495502668 0.00384782489386861 -0.014191931263153403
51500000000.0 0.0038275987570710354 -0.014195244416438492 0.8933617294846303 -0.42514165761299266 0.8933814107630755 -0.42512643783199255 0.00382537941102388 -0.01421687833827168
51600000000.0 0.0038057209903783716 -0.014220232051879843 0.8929888546965506 -0.42590354090393373 0.8930089445066104 -0.4258889212452722 0.003802910167387933 -0.014241763250716716
51700000000.0 0.0037838158578894737 -0.014245174195707507 0.8926153705567765 -0.42666500872414614 0.8926358508007014 -0.42665100000272943 0.003780417597633517 -0.014266586560372057
51800000000.0 0.0037618833399696225 -0.014270071268671523 0.8922412800178288 -0.4274260618984159 0.892262132316256 -0.4274126743858167 0.003757902118325793 -0.01429134883259488
51900000000.0 0.003739923403720505 -0.014294923684762496 0.8918665859871762 -0.4281867013265685 0.891887791695388 -0.4281739447438635 0.0037353641278616216 -0.014316050637722637
52000000000.0 0.0037179360032464255 -0.01431973185087753 0.8914912913251846 -0.42894692798197287 0.8915128315495428 -0.4289348114930621 0.0037128040064221607 -0.014340692550578595
52100000000.0 0.0036959210799263125 -0.014344496166499037 0.8911153988431197 -0.42970674290999505 0.8911372544576609 -0.42969527511541367 0.00369022211593693 -0.014365275149980521
52200000000.0 0.0036738785626961807 -0.014369217023379469 0.8907389113012 -0.43046614722639365 0.8907610629643771 -0.43045533615761505 0.0036676188000607326 -0.01438979901824884
52300000000.0 0.0036518083683362837 -0.014393894805236538 0.8903618314066968 -0.43122514211566637 0.8903842595782541 -0.43121499522990187 0.003644994384164714 -0.014414264740715808
52400000000.0 0.003629710401767404 -0.014418529887457912 0.8899841618120875 -0.43198372882934294 0.8900068467700543 -0.4319742530048424 0.0036223491753401946 -0.014438672905237008
52500000000.0 0.003607584556351947 -0.014443122636815716 0.8896059051132685 -0.4327419086842353 0.8896288269710532 -0.43273311021608696 0.003599683462413387 -0.01446302410170536
52600000000.0 0.0035854307142025145 -0.014467673411191054 0.8892270638478154 -0.4334996830606337 0.8892502025713891 -0.4334915676570687 0.0035769975159740115 -0.01448731892156649
52700000000.0 0.0035632487464970545 -0.014492182559306907 0.8888476404933047 -0.4342570534004632 0.8888709759184574 -0.43424962617966484 0.0035542915884174305 -0.014511557957336637
52800000000.0 0.003541038513796459 -0.014516650420473561 0.8884676374656914 -0.4350140212053936 0.888491149315348 -0.43500728669281163 0.003531565913995544 -0.014535741802124797
52900000000.0 0.0035187998663728645 -0.014541077324342481 0.8880870571177442 -0.435770588034909 0.8881107250193229 -0.43576455016108195 0.003508820708885055 -0.014559871049157078
53000000000.0 0.003496532644538452 -0.014565463590669958 0.8877059017375424 -0.4365267555043375 0.887729705240343 -0.436521417603221 0.0034860561712626915 -0.01458394629130423
53100000000.0 0.003474236678979994 -0.014589809529093478 0.8873241735470325 -0.43728252528284123 0.8873480921396364 -0.4372778900906411 0.003463272481394705 -0.014607968120614826
53200000000.0 0.0034519117911017186 -0.014614115438914773 0.8869418747006437 -0.43803789909137353 0.8869658878283178 -0.4380339687458871 0.003440469801740447 -0.01463193712784985
53300000000.0 0.003429557793365537 -0.0146383816088982 0.8865590072839706 -0.4387928787005976 0.8865830943660518 -0.4387896547410582 0.0034176482770619846 -0.014655853902025482
53400000000.0 0.003407174489642578 -0.01466260831707449 0.8861755733125163 -0.4395474659287772 0.8861997137597669 -0.43954494929620125 0.003394808034551361 -0.014679719029956247
53500000000.0 0.0033847616755614414 -0.01468679583055879 0.8857915747304972 -0.44030166263963133 0.8858157479624212 -0.44029985367766855 0.0033719491839642643 -0.014703533095806678
53600000000.0 0.0033623191388651376 -0.014710944405378297 0.8854070134097175 -0.44105547074016777 0.8854311988718107 -0.441054369196447 0.003349071817767037 -0.014727296680647026
53700000000.0 0.003339846659767747 -0.014735054286309267 0.8850218911485056 -0.441808892178482 0.8850460683294369 -0.4418084972064555 0.0033261760112956703 -0.014751010362013407
53800000000.0 0.0033173440113153274 -0.014759125706727222 0.8846362096707154 -0.4425619289415372 0.8846603581194217 -0.4425622391028162 0.0033032618229228905 -0.014774674713476352
53900000000.0 0.0032948109597471715 -0.014783158888465847 0.8842499706247985 -0.4433145830529187 0.8842740699674754 -0.4433155963200988 0.0032803292942373006 -0.014798290304213294
54000000000.0 0.003272247264861477 -0.014807154041686279 0.8838631755829359 -0.4440668565705684 0.8838872055399175 -0.44406857033054004 0.0032573784502337934 -0.014821857698586776
54100000000.0 0.0032496526803834492 -0.0148311113647595 0.8834758260402452 -0.4448187515845018 0.883499766442751 -0.44482116264224 0.003234409299512039 -0.014845377455732438
54200000000.0 0.0032270269543285077 -0.014855031044157588 0.8830879234140497 -0.445570270214505 0.8831117542207918 -0.4455733747973372 0.0032114218344861203 -0.014868850129150847
54300000000.0 0.003204369829376414 -0.014878913254355242 0.8826994690432158 -0.4463214146078189 0.8827231703568503 -0.44632520837016304 0.00318841603160495 -0.01489227626630679
54400000000.0 0.0031816810432361954 -0.01490275815774422 0.88231046418756 -0.4470721869368118 0.8823340162709679 -0.4470766649653776 0.00316539185157859 -0.014915656408237589
54500000000.0 0.003158960329020696 -0.014926565904555635 0.8819209100273254 -0.44782258939663916 0.8819442933197119 -0.44782774621609195 0.0031423492396187567 -0.014938991089166492
54600000000.0 0.0031362074156131613 -0.014950336632795103 0.8815308076627213 -0.4485726242028928 0.8815540027955223 -0.4485784537819689 0.003119288125684712 -0.014962280836125627
54700000000.0 0.003113422028040278 -0.01497407046818722 0.8811401581135379 -0.44932229358924963 0.8811631459261164 -0.4493287893473171 0.0030962084247389086 -0.014985526168585929
54800000000.0 0.0030906038878412458 -0.014997767524130548 0.880748962318823 -0.4500715998051077 0.8807717238739465 -0.450078754619169 0.003073110037012362 -0.015008727598094695
54900000000.0 0.0030677527134366006 -0.015021427901664351 0.8803572211366337 -0.45082054511322295 0.8803797377357205 -0.4508283513253483 0.003049992848276148 -0.015031885627923578
55000000000.0 0.0030448682204975365 -0.015045051689443286 0.8799649353438485 -0.4515691317873475 0.8799871885419678 -0.45157758121253405 0.003026856730123818 -0.015055000752721683
55100000000.0 0.003021950122312771 -0.015068638963724377 0.8795721056360533 -0.4523173621098631 0.8795940772566728 -0.45232644604431005 0.0030037015402589245 -0.015078073458179847
55200000000.0 0.0029989981301536206 -0.015092189788363899 0.8791787326274937 -0.45306523836942175 0.8792004047769588 -0.453074947599214 0.0029805271227919435 -0.015101104220703442
55300000000.0 0.0029760119536390134 -0.015115704214823824 0.8787848168510956 -0.45381276285859107 0.8788061719328281 -0.45382308766878265 0.002957333308544011 -0.015124093507093114
55400000000.0 0.002952991301096974 -0.015139182282187521 0.8783903587585484 -0.45455993787150284 0.8784113794869596 -0.45457086805559294 0.002934119915357221 -0.01514704177423483
55500000000.0 0.0029299358799239504 -0.015162624017187794 0.8779953587204617 -0.45530676570151346 0.8780160281345636 -0.45531829057130235 0.0029108867484116804 -0.015169949468800388
55600000000.0 0.0029068453969426835 -0.015186029434241575 0.8775998170265844 -0.45605324863887436 0.877620118503292 -0.4560653570346925 0.002887633600551536 -0.015192817026955057
55700000000.0 0.0028837195587557217 -0.015209398535497297 0.8772037338860895 -0.4567993889684135 0.8772236511532029 -0.45681206926971496 0.00286436025261262 -0.015215644874077946
55800000000.0 0.002860558072096935 -0.015232731310889064 0.876807109427925 -0.4575451889672324 0.8768266265767813 -0.45755842910353905 0.0028410664737610063 -0.015238433424488326
55900000000.0 0.0028373606441802536 -0.015256027738202291 0.8764099437012318 -0.4582906509024171 0.8764290451990188 -0.4583044383646064 0.00281775202183391 -0.01526118308118452
56000000000.0 0.0028141269830427172 -0.015279287783147617 0.8760122366758214 -0.4590357770287703 0.87603090737754 -0.4590500988806955 0.00279441664368741 -0.01528389423559158
56100000000.0 0.002790856797886321 -0.015302511399443684 0.8756139882427195 -0.4597805695865594 0.8756322134027952 -0.4597954124769912 0.0027710600755495177 -0.015306567267318445
56200000000.0 0.0027675497994141284 -0.015325698528910279 0.8752151982147737 -0.46052503079928786 0.8752329634982957 -0.460540380974166 0.0027476820433771677 -0.015329202543926713
56300000000.0 0.002744205700163394 -0.015348849101567755 0.8748158663273179 -0.46126916287148906 0.8748331578209102 -0.4612850061864749 0.002724282263219115 -0.015351800420707384
56400000000.0 0.002720824214832527 -0.015371963035748434 0.8744159922389056 -0.4620129679865446 0.8744327964612124 -0.46202928991986036 0.002700860441582124 -0.015374361240470187
56500000000.0 0.002697405060605359 -0.015395040238212969 0.8740155755320944 -0.4627564483045304 0.8740318794438813 -0.4627732339700759 0.002677416275801799 -0.015396885333340824
56600000000.0 0.0026739479574692613 -0.015418080604278128 0.873614615714299 -0.46349960596008744 0.8736304067281534 -0.46351684012082217 0.0026539494544168076 -0.015419373016570535
56700000000.0 0.002650452628528773 -0.015441084017950722 0.8732131122186937 -0.46424244306032664 0.8732283782083252 -0.46426011014190277 0.002630459657546852 -0.015441824594355395
56800000000.0 0.0026269188003142617 -0.015464050352069558 0.872811064405179 -0.4649849616827591 0.8728257937143132 -0.46500304578739965 0.002606946557275194 -0.015464240357664812
56900000000.0 0.0026033462030831244 -0.015486979468456976 0.8724084715614017 -0.46572716387326585 0.872422653012253 -0.4657456487938677 0.002583409818029619 -0.015486620584083371
57000000000.0 0.002579734571119335 -0.015509871218075259 0.8720053329038279 -0.46646905164409597 0.8720189558051563 -0.46648792087855157 0.002559849096972906 -0.01550896553766021
57100000000.0 0.0025560836430231254 -0.015532725441193053 0.8716016475788763 -0.4672106269719026 0.8716147017336181 -0.46722986373762554 0.0025362640443901394 -0.015531275468770249
57200000000.0 0.0025323931619960723 -0.015555541967556938 0.8711974146640984 -0.4679518917958163 0.8712098903765619 -0.4679714790444577 0.0025126543040799977 -0.015553550613986989
57300000000.0 0.0025086628761214922 -0.015578320616571668 0.8707926331694109 -0.46869284801555744 0.8708045212520419 -0.46871276844790233 0.002489019513748629 -0.015575791195963971
57400000000.0 0.002484892538637473 -0.015601061197485172 0.870387302038386 -0.4694334974895852 0.8703985938180888 -0.4694537335706135 0.002465359305403481 -0.015597997423328177
57500000000.0 0.002461081908201982 -0.01562376350958263 0.8699814201495792 -0.47017384203329043 0.8699921074735966 -0.47019437600739356 0.002441673305750583 -0.015620169490583152
57600000000.0 0.0024372307491538573 -0.015646427342385093 0.8695749863179137 -0.4709138834172328 0.8695850615592605 -0.4709346973235668 0.0024179611365902683 -0.015642307578024595
57700000000.0 0.002413338831766074 -0.01566905247585506 0.8691679992961105 -0.4716536233654155 0.8691774553585544 -0.471674699053385 0.0023942224152159637 -0.015664411851663066
57800000000.0 0.0023894059324910503 -0.01569163868060686 0.8687604577761585 -0.47239306355360916 0.8687692880987502 -0.4724143826984637 0.002370456754811281 -0.01568648246316069
57900000000.0 0.0023654318342007123 -0.015714185718125308 0.8683523603908354 -0.473132205607723 0.868360558951982 -0.47315374972625357 0.0023466637648501317 -0.015708519549776034
58000000000.0 0.002341416326418682 -0.01573669334098672 0.8679437057152652 -0.4738710511022182 0.8679512670363478 -0.4738928015685438 0.0023228430514930388 -0.015730523234321996
58100000000.0 0.0023173592055453205 -0.015759161293087905 0.8675344922685216 -0.4746096015585727 0.8675414114170528 -0.47463153962000026 0.0022989942179865775 -0.01575249362513041
58200000000.0 0.0022932602750738193 -0.01578158930987845 0.8671247185152663 -0.47534785844379557 0.8671309911075885 -0.4753699652367401 0.0022751168650603872 -0.015774430816030287
58300000000.0 0.0022691193458033183 -0.015803977118599526 0.8667143828674296 -0.4760858231689885 0.8667200050709517 -0.4761080797349443 0.002251210591323504 -0.015796334886336413
58400000000.0 0.0022449362360385306 -0.015826324438524445 0.8663034836859239 -0.4768234970879617 0.8663084522208988 -0.47684588438950637 0.002227274993659932 -0.015818205900844335
58500000000.0 0.0022207107717869042 -0.01584863098120755 0.8658920192823967 -0.4775608814959 0.8658963314232333 -0.47758338043272097 0.002203309667622459 -0.015840043909841055
58600000000.0 0.0021964427869439716 -0.01587089645073374 0.8654799879210107 -0.4782979776280813 0.8654836414971293 -0.47832056905301074 0.00217931420782542 -0.015861848949121054
58700000000.0 0.002172132123475563 -0.015893120543974387 0.865067387820262 -0.47903478665864974 0.8650703812164858 -0.47905745139369516 0.0021552882083346065 -0.015883621040015977
58800000000.0 0.0021477786315863413 -0.015915302950845738 0.8646542171548257 -0.4797713096994436 0.8646565493113152 -0.4797940285518014 0.0021312312630561753 -0.01590536018943209
58900000000.0 0.0021233821698864548 -0.01593744335457043 0.8642404740574305 -0.4805075477988758 0.8642421444691569 -0.48053030157691284 0.0021071429661227263 -0.015927066389897666
59000000000.0 0.002098942605545111 -0.01595954143194453 0.8638261566207615 -0.481243501940872 0.8638271653365268 -0.48126627147006623 0.0020830229122753324 -0.01594873961962255
59100000000.0 0.0020744598144400057 -0.015981596853603952 0.8634112628993823 -0.48197917304386784 0.863411610520384 -0.4820019391826877 0.0020588706972461956 -0.01597037984256301
59200000000.0 0.0020499336812961544 -0.016003609284297237 0.8629957909116946 -0.48271456195985474 0.8629954785896371 -0.48273730561557615 0.0020346859181342176 -0.015991987008501907
59300000000.0 0.0020253640998180674 -0.0160255783831586 0.862579738641905 -0.48344966947349194 0.8625787680766647 -0.4834723716179268 0.0020104681737796145 -0.01601356105313188
59400000000.0 0.002000750972812799 -0.016047503803984387 0.8621631040420216 -0.4841844963012734 0.8621614774788627 -0.48420713798640674 0.001986217065135191 -0.016035101898154002
59500000000.0 0.001976094212305687 -0.016069385195511394 0.8617458850338641 -0.48491904309074935 0.8617436052602166 -0.48494160546426957 0.001961932195631698 -0.016056609451381206
59600000000.0 0.001951393739647463 -0.016091222201696582 0.8613280795110967 -0.4856533104198121 0.8613251498528907 -0.48567577474052104 0.0019376131715415589 -0.01607808360685313
59700000000.0 0.0019266494856135597 -0.016113014461999305 0.8609096853412717 -0.48638729879603865 0.8609061096588418 -0.48640964644912965 0.001913259602337418 -0.016099524244958727
59800000000.0 0.0019018613904948898 -0.016134761611664192 0.8604907003678881 -0.4871210086560902 0.8604864830514458 -0.48714322116828257 0.0018888711010460765 -0.016120931232568574
59900000000.0 0.0018770294041800775 -0.01615646328200544 0.8600711224124619 -0.4878544403651752 0.8600662683771438 -0.4878764994196954 0.0018644472845967793 -0.016142304423175633
60000000000.0 0.0018521534862307079 -0.016178119100692504 0.8596509492766119 -0.4885875942165707 0.8596454639571065 -0.4886094816679607 0.0018399877741684624 -0.016163643657043154
60100000000.0 0.0018272336059480326 -0.016199728692035825 0.8592301787441425 -0.489320470431201 0.8592240680889071 -0.48934216831995364 0.0018154921955270571 -0.016184948761364237
60200000000.0 0.001802269742429113 -0.01622129167727361 0.8588088085831479 -0.4900530691572815 0.8588020790482108 -0.4900745597242797 0.0017909601793608368 -0.016206219550425702
60300000000.0 0.0017772618846200125 -0.016242807674858643 0.8583868365481098 -0.4907853904700158 0.8583794950904761 -0.4908066561707766 0.0017663913616092263 -0.01622745582578278
60400000000.0 0.0017522100313555713 -0.01626427630074527 0.8579642603820057 -0.49151743437136136 0.8579563144526644 -0.4915384578900586 0.001741785383786206 -0.0162486573764404
60500000000.0 0.0017271141913944444 -0.016285697168675856 0.8575410778184149 -0.4922492007898452 0.8575325353549571 -0.4922699650531172 0.0017171418932982142 -0.01626982397904297
60600000000.0 0.0017019743834442381 -0.01630706989046811 0.8571172865836295 -0.49298068958044955 0.8571081560024835 -0.4930011777709652 0.0016924605437547123 -0.016290955398070975
60700000000.0 0.0016767906361806948 -0.016328394076300094 0.8566928843987567 -0.49371190052454816 0.8566831745870529 -0.4937320960943335 0.0016677409952754526 -0.016312051386045065
60800000000.0 0.0016515629882573421 -0.016349669334995494 0.8562678689818279 -0.4944428333299088 0.8562575892888892 -0.49446272001341474 0.0016429829147880423 -0.01633311168373856
60900000000.0 0.0016262914883074947 -0.01637089527430776 0.8558422380498923 -0.4951734876307524 0.8558313982783727 -0.4951930494576601 0.001618185976322195 -0.016354136020394837
61000000000.0 0.0016009761949387848 -0.01639207150120351 0.8554159893211118 -0.49590386298787154 0.8554045997177777 -0.49592308429562143 0.0015933498612940686 -0.016375124113952932
61100000000.0 0.00157561717672018 -0.016413197622143275 0.8549891205168448 -0.4966339588888052 0.8549771917630196 -0.49665282433484326 0.0015684742587871758 -0.016396075671280853
61200000000.0 0.0015502145121615836 -0.016434273243361646 0.8545616293637224 -0.49736377474807947 0.8545491725653896 -0.4973822693218068 0.0015435588658249768 -0.016416990388411653
61300000000.0 0.0015247682896845896 -0.01645529797114522 0.8541335135957082 -0.49809330990749623 0.8541205402732965 -0.49811141894192035 0.0015186033876352651 -0.016437867950789675
61400000000.0 0.0014992786075865867 -0.01647627141210921 0.8537047709561519 -0.4988225636364863 0.8536912930339995 -0.49884027281955823 0.0014936075379091904 -0.016458708033521948
61500000000.0 0.0014737455739981147 -0.016497193173471446 0.8532753991998243 -0.49955153513251843 0.8532614289953387 -0.4995688305181509 0.0014685710390523867 -0.016479510301632992
61600000000.0 0.0014481693068321884 -0.016518062863321865 0.8528453960949376 -0.5002802235215615 0.8528309463074559 -0.5002970915403195 0.0014434936224274812 -0.016500274410328048
61700000000.0 0.0014225499337253453 -0.016538880090894187 0.8524147594251461 -0.5010086278586079 0.8523998431245123 -0.5010250553280634 0.0014183750285917 -0.016521000005260682
61800000000.0 0.0013968875919745793 -0.016559644466830756 0.8519834869915329 -0.501736747128248 0.8519681176063929 -0.5017527212629902 0.0013932150075241978 -0.016541686722805742
61900000000.0 0.0013711824284638923 -0.016580355603445982 0.8515515766145688 -0.5024645802452995 0.8515357679204012 -0.502480088666596 0.0013680133188462638 -0.016562334190337594
62000000000.0 0.0013454345995859054 -0.016601013114985796 0.851119026136056 -0.5031921260554943 0.8511027922429458 -0.5032071568005945 0.0013427697320354433 -0.01658294202651148
62100000000.0 0.001319644271156668 -0.016621616617886362 0.8506858334210442 -0.5039193833362153 0.8506691887612085 -0.5039339248672862 0.0013174840266287659 -0.016603509841553094
62200000000.0 0.001293811618323359 -0.0166421657310254 0.8502519963597225 -0.504646350797286 0.8502349556748038 -0.504660392009982 0.0012921559924207978 -0.016624037237548798
62300000000.0 0.001267936825464667 -0.01666266007597384 0.8498175128692851 -0.505373027081812 0.8498000911974178 -0.505386557313463 0.0012667854296507565 -0.016644523808741644
62400000000.0 0.001242020086086601 -0.016683099277240352 0.8493823808957703 -0.5060994107670747 0.8493645935584337 -0.5061124198044957 0.0012413721491836916 -0.016664969141831614
62500000000.0 0.0012160616027112182 -0.016703482962514532 0.8489465984158687 -0.5068255003654732 0.8489284610045392 -0.506837978452383 0.0012159159726829395 -0.01668537281627933
62600000000.0 0.0011900615867572481 -0.016723810762905054 0.8485101634387023 -0.5075512943255173 0.8484916918013131 -0.5075632321695618 0.00119041673277245 -0.016705734404612906
62700000000.0 0.0011640202584187911 -0.016744082313172776 0.848073074007571 -0.5082767910328623 0.8480542842347945 -0.5082881798122455 0.001164874273193461 -0.016726053472738124
62800000000.0 0.0011379378465342495 -0.01676429725196051 0.8476353282016658 -0.5090019888114009 0.8476162366130245 -0.5090128201811085 0.0011392884489495277 -0.016746329580252284
62900000000.0 0.001111814588451231 -0.016784455222018855 0.8471969241377482 -0.5097268859243933 0.8471775472675744 -0.50973715202201 0.0011136591264463457 -0.016766562280760854
63000000000.0 0.0010856507298866998 -0.01680455587042552 0.8467578599717959 -0.5104514805756438 0.8467382145550423 -0.5104611740267615 0.001087986183620466 -0.01678675112219525
63100000000.0 0.0010594465247798738 -0.016824598848800457 0.8463181339006082 -0.5111757709107225 0.846298236858529 -0.511184884833935 0.0010622695100601888 -0.01680689564713498
63200000000.0 0.0010332022351408018 -0.01684458381351881 0.8458777441633759 -0.5118997550182309 0.8458576125890874 -0.511908283029707 0.001036509007118666 -0.016826995393130897
63300000000.0 0.0010069181308934104 -0.016864510425914365 0.8454366890432126 -0.5126234309311057 0.8454163401871433 -0.5126313671487475 0.001010704588016029 -0.016847049893031152
63400000000.0 0.000980594489715767 -0.01688437835248088 0.8449949668686447 -0.5133467966279653 0.8449744181238906 -0.5133541356751398 0.0009848561779356153 -0.01686705867530708
63500000000.0 0.0009542315968699978 -0.016904187265068336 0.8445525760150608 -0.5140698500344949 0.8445318449026583 -0.5140765870433444 0.0009589637141096678 -0.016887021264383285
63600000000.0 0.0009278297450350865 -0.016923936841070835 0.8441095149061181 -0.5147925890248701 0.8440886190602408 -0.5147987196391931 0.0009330271458965594 -0.016906937180966558
63700000000.0 0.0009013892341291046 -0.01694362676361299 0.84366578201511 -0.5155150114232165 0.8436447391682094 -0.5155205318009235 0.0009070464348493038 -0.016926805942377107
63800000000.0 0.0008749103711294924 -0.016963256721727826 0.8432213758662821 -0.5162371150051048 0.843200203834179 -0.5162420218202428 0.0008810215547762053 -0.016946627062879725
63900000000.0 0.0008483934698891734 -0.01698282641053135 0.8427762950361103 -0.5169588974990805 0.8427550117030538 -0.5169631879434297 0.0008549524917906725 -0.016966400054018078
64000000000.0 0.0008218388509490211 -0.01700233553138784 0.8423305381545315 -0.5176803565882268 0.8423091614582303 -0.5176840283724665 0.0008288392443546948 -0.016986124424944356
64100000000.0 0.0007952468413457251 -0.01702178379207445 0.841884103906123 -0.5184014899117572 0.8418626518227706 -0.5184045412662017 0.0008026818233122882 -0.01700579968275496
64200000000.0 0.0007686177744154085 -0.01704117090693489 0.8414369910312406 -0.5191222950666401 0.841415481560541 -0.5191247247415447 0.0007764802519136763 -0.017025425332822006
64300000000.0 0.0007419519895959907 -0.017060496597030215 0.8409891983271062 -0.519842769609251 0.8409676494773127 -0.5198445768746908 0.000750234565832445 -0.017045000879125163
64400000000.0 0.0007152498322244621 -0.01707976059028257 0.8405407246488463 -0.5205629110570522 0.8405191544218271 -0.5205640957023697 0.0007239448131725698 -0.017064525824584908
64500000000.0 0.0006885116533299954 -0.017098962621613728 0.8400915689104798 -0.521282716890299 0.8400699952868218 -0.521283279223128 0.0006976110544670147 -0.017083999671393662
64600000000.0 0.0006617378094293705 -0.017118102433074947 0.8396417300858607 -0.5220021845537697 0.8396201710100238 -0.5220021253986331 0.0006712333626697845 -0.01710342192134505
64700000000.0 0.0006349286623114225 -0.017137179773973926 0.8391912072095612 -0.5227213114585182 0.839169680575095 -0.5227206321550021 0.0006448118231357279 -0.01712279207616342
64800000000.0 0.0006080845788265799 -0.017156194400993443 0.8387399993777129 -0.5234400949836486 0.8387185230125488 -0.5234387973841584 0.0006183465335948151 -0.01714210963783254
64900000000.0 0.0005812059306689121 -0.017175146078304115 0.838288105748791 -0.5241585324781114 0.8382666974006188 -0.5241566189452069 0.0005918376041170695 -0.017161374108919977
65000000000.0 0.0005542930941601111 -0.017194034577670412 0.837835525544346 -0.5248766212625139 0.8378142028660901 -0.524874094665832 0.0005652851570697612 -0.01718058499290341
65100000000.0 0.0005273464500258456 -0.0172128596785524 0.8373822580496867 -0.5255943586309529 0.8373610385850918 -0.5255912223437189 0.0005386893270640556 -0.01719974179449153
65200000000.0 0.0005003663831762931 -0.017231621168197302 0.8369283026145049 -0.5263117418528588 0.8369072037838436 -0.5263079997479888 0.0005120502608967804 -0.01721884401994441
65300000000.0 0.0004733532824812396 -0.017250318841728694 0.8364736586534514 -0.5270287681748568 0.8364526977393627 -0.5270244246206569 0.00048536811748154876 -0.017237891177392415
65400000000.0 0.0004463075405455577 -0.017268952502224783 0.8360183256466558 -0.527745434822637 0.8359975197801307 -0.5277404946781052 0.0004586430677729188 -0.01725688277714884
65500000000.0 0.0004192295534801402 -0.017287521960796203 0.8355623031401911 -0.5284617390028394 0.8355416692867131 -0.5284562076125707 0.0004318752946818392 -0.01727581833202465
65600000000.0 0.00039211972067714943 -0.017306027036650858 0.8351055907464899 -0.5291776779049451 0.8350851456923389 -0.5291715610936478 0.0004050649929842758 -0.017294697357636755
65700000000.0 0.0003649784445792875 -0.01732446755715686 0.8346481881446995 -0.5298932487031778 0.8346279484834367 -0.5298865527698048 0.0003782123692210166 -0.017313519372713495
65800000000.0 0.00033780613045048246 -0.017342843357897538 0.8341900950809863 -0.5306084485584096 0.834170077200126 -0.5306011802699142 0.00035131764159051967 -0.01733228389939885
65900000000.0 0.00031060318614546434 -0.017361154282718182 0.8337313113687853 -0.5313232746200718 0.8337115314366652 -0.5313154412047871 0.00032438103983343115 -0.017350990463549227
66000000000.0 0.00028337002188112535 -0.017379400183769936 0.8332718368889952 -0.532037724028072 0.8332523108418557 -0.5320293331687256 0.0002974028051110873 -0.01736963859503116
66100000000.0 0.000256107050002703 -0.017397580921544222 0.8328116715901182 -0.532751793914708 0.8327924151194013 -0.5327428537410759 0.0002703831898746865 -0.017388227828010385
66200000000.0 0.00022881468475439512 -0.017415696364902776 0.8323508154883462 -0.5334654814065853 0.8323318440282234 -0.5334560004877946 0.0002433224577281339 -0.017406757701241848
66300000000.0 0.00020149334204870126 -0.01743374639109886 0.8318892686675917 -0.5341787836265331 0.8318705973827313 -0.5341687709630146 0.00021622088328489327 -0.017425227758349912
66400000000.0 0.00017414343923587088 -0.017451730885794155 0.8314270312794654 -0.5348916976955131 0.8314086750530485 -0.5348811627106207 0.00018907875201608568 -0.017443637548107817
66500000000.0 0.00014676539487273435 -0.017469649743069755 0.8309641035432018 -0.5356042207345327 0.830946076965195 -0.5355931732658251 0.00016189636009269207 -0.01746198662471223
66600000000.0 0.00011935962849394372 -0.017487502865428613 0.8305004857455248 -0.5363163498665421 0.8304828031012212 -0.5363048001567465 0.00013467401422015272 -0.017480274548051726
66700000000.0 9.192656038344294e-05 -0.01750529016379178 0.8300361782404674 -0.5370280822183314 0.8300188534993037 -0.5370160409059889 0.00010741203146844845 -0.017498500883970147
66800000000.0 6.446661134633059e-05 -0.017523011557492637 0.8295711814491316 -0.5377394149224142 0.82955422825379 -0.5377268930322187 8.01107390929271e-05 -0.01751666520452681
66900000000.0 3.698020248278109e-05 -0.017540666974259 0.8291054958594025 -0.5384503451189045 0.8290889275152035 -0.5384373540517433 5.2770474351420134e-05 -0.017534767088248297
67000000000.0 9.467754961137096e-06 -0.01755825635019269 0.8286391220256013 -0.5391608699573779 0.8286229514902007 -0.5391474214800849 2.5391584313583204e-05 -0.0175528061203794
67100000000.0 -1.8070310204177942e-05 -0.017575779629743663 0.8281720605680942 -0.5398709865987233 0.828156300441487 -0.5398570928335467 -2.0255743362080353e-06 -0.017570781893123374
67200000000.0 -4.563357237614448e-05 -0.01759323676567453 0.8277043121728462 -0.540580692216976 0.8276889746876882 -0.5405663656307794 -2.948063549874591e-05 -0.017588694005879424
67300000000.0 -7.322161151520464e-05 -0.017610627719022692 0.8272358775909223 -0.5412899840011378 0.8272209746031753 -0.5412752373943376 -5.69732238697032e-05 -0.01760654206547514
67400000000.0 -0.00010083400839817574 -0.017627952459055282 0.8267667576379425 -0.5419988591569773 0.8267523006178499 -0.5419837056522273 -8.450295515153805e-05 -0.017624325686389625
67500000000.0 -0.00012847034483556293 -0.017645210963218208 0.826296953193483 -0.5427073149088116 0.8262829532168849 -0.5426917679394467 -0.00011206943627192841 -0.017642044490974673
67600000000.0 -0.0001561302038840278 -0.017662403217078747 0.8258264652004303 -0.5434153485012692 0.8258129329404222 -0.5433994217995156 -0.0001396722656087772 -0.01765969810966512
67700000000.0 -0.00018381317006078206 -0.017679529214265157 0.8253552946642868 -0.5441229572010288 0.8253422403832276 -0.5441066647859921 -0.000167311033217356 -0.017677286181187572
67800000000.0 -0.00021151882955151377 -0.01769658895639735 0.8248834426524263 -0.5448301382985361 0.8248708761943041 -0.5448134944639786 -0.00019498532106449346 -0.017694808352759637
67900000000.0 -0.00023924677041829403 -0.017713582453013996 0.8244109102933055 -0.5455368891096967 0.8243988410764648 -0.5455199084116122 -0.00022269470326699724 -0.01771226428028241
68000000000.0 -0.0002669965828029316 -0.017730509721494783 0.8239376987756275 -0.5462432069775413 0.8239261357858644 -0.546225904221541 -0.00025043874633331526 -0.01772965362852837
68100000000.0 -0.00029476785912931736 -0.01774737078697569 0.8234638093474596 -0.5469490892738677 0.823452761131486 -0.5469314795023841 -0.0002782170094116316 -0.017746976071321214
68200000000.0 -0.00032256019429949636 -0.01776416568226185 0.822989243315305 -0.5476545334008501 0.822978717974596 -0.5476366318801739 -0.0003060290445395864 -0.017764231291708874
68300000000.0 -0.00035037318589146294 -0.017780894447729765 0.8225140020431366 -0.5483595367926222 0.8225040072281523 -0.5483413589997814 -0.00033387439690052276 -0.017781418982129107
68400000000.0 -0.00037820643434934996 -0.017797557131233238 0.8220380869513807 -0.5490640969168294 0.8220286298561765 -0.5490456585263194 -0.0003617526050806962 -0.017798538844569965
68500000000.0 -0.00040605954317140944 -0.01781415378799546 0.821561499515862 -0.5497682112761458 0.821552586873088 -0.5497495281465282 -0.0003896632013334125 -0.017815590590720142
68600000000.0 -0.00043393211909570985 -0.017830684480502745 0.8210842412667089 -0.5504718774097643 0.8210758793429994 -0.5504529655701375 -0.0004176057118412689 -0.017832573942115404
68700000000.0 -0.0004618237722807705 -0.017847149278390973 0.8206063137872158 -0.551175092894847 0.8205985083789763 -0.5511559685312075 -0.00044557965698868116 -0.01784948863027543
68800000000.0 -0.0004897341164832808 -0.017863548258326638 0.8201277187126703 -0.5518778553479439 0.8201204751422597 -0.5518585347894449 -0.00047358455163150744 -0.017866334396833012
68900000000.0 -0.000517662769230999 -0.017879881503887383 0.8196484577291384 -0.5525801624263755 0.8196417808414544 -0.5525606621314966 -0.0005016199053709052 -0.017883110993659003
69000000000.0 -0.0005456093519931812 -0.01789614910543317 0.8191685325722164 -0.5532820118295756 0.8191624267316805 -0.5532623483722138 -0.0005296852228315074 -0.017899818182976365
69100000000.0 -0.0005735734903450205 -0.017912351159977438 0.818687945025745 -0.5539834013003988 0.8186824141136922 -0.5539635913558949 -0.0005577800039399262 -0.017916455737468032
69200000000.0 -0.0006015548141299306 -0.01792848777105128 0.8182066969204895 -0.5546843286263883 0.8182017443329646 -0.5546643889574981 -0.0005859037442074877 -0.017933023440377217
69300000000.0 -0.0006295529576153182 -0.01794455904856719 0.8177247901327886 -0.5553847916410027 0.8177204187787446 -0.5553647390838248 -0.0006140559350118243 -0.017949521085601463
69400000000.0 -0.0006575675596472 -0.017960565108674942 0.817242226583168 -0.5560847882248041 0.8172384388830759 -0.5560646396746772 -0.0006422360638834622 -0.017965948477776165
69500000000.0 -0.0006855982637960714 -0.017976506073616887 0.816759008234924 -0.5567843163066015 0.8167558061197869 -0.5567640887039826 -0.0006704436147928004 -0.017982305432352873
69600000000.0 -0.0007136447185028184 -0.017992382071578775 0.8162751370926788 -0.557483373864555 0.8162725220034553 -0.5574630841808911 -0.0006986780684372019 -0.017998591775669138
69700000000.0 -0.0007417065772163321 -0.018008193236537334 0.8157906152009088 -0.5581819589272374 0.815788588088338 -0.5581616241508375 -0.0007269389025309987 -0.018014807345010722
69800000000.0 -0.0007697834985285953 -0.018023939708104213 0.8153054446424388 -0.5588800695746438 0.8153040059672788 -0.5588597066965727 -0.000755225592096255 -0.018030951988665875
69900000000.0 -0.0007978751463044154 -0.018039621631367637 0.8148196275369203 -0.5595777039391697 0.8148187772705853 -0.5595573299391646 -0.0007835376097525065 -0.0180470255659721
70000000000.0 -0.0008259811898062687 -0.018055239156730362 0.8143331660392752 -0.5602748602065334 0.8143329036648791 -0.5602544920389613 -0.0008118744260101458 -0.01806302794735581
70100000000.0 -0.0008541013038145746 -0.018070792439745104 0.8138460623381274 -0.5609715366166569 0.813846386851928 -0.5609511911965216 -0.0008402355095606007 -0.01807895901436207
70200000000.0 -0.0008822351687426135 -0.018086281640948824 0.8133583186542009 -0.5616677314644987 0.8133592285674458 -0.5616474256535138 -0.0008686203275706552 -0.018094818659681218
70300000000.0 -0.000910382470746312 -0.018101706925690336 0.8128699372387065 -0.5623634431008434 0.8128714305798738 -0.5623431936935724 -0.0008970283459714593 -0.018110606787161365
70400000000.0 -0.0009385429018313813 -0.018117068463961675 0.8123809203717051 -0.563058669933038 0.8123829946891399 -0.563038493643125 -0.0009254590297546442 -0.01812632331181919
70500000000.0 -0.0009667161599498704 -0.018132366430221675 0.8118912703604547 -0.5637534104256843 0.811893922725398 -0.5637333238721791 -0.0009539118432598683 -0.018141968159839882
70600000000.0 -0.0009949019490989195 -0.018147601003220704 0.8114009895377399 -0.564447663101285 0.811404216547745 -0.5644276827950727 -0.000982386250467231 -0.01815754126857005
70700000000.0 -0.0010230999794085982 -0.01816277236582193 0.8109100802601877 -0.5651414265408333 0.8109138780429215 -0.5651215688711874 -0.0010108817152884638 -0.01817304258650334
70800000000.0 -0.0010513099672269635 -0.018177880704821955 0.8104185449065713 -0.5658346993843628 0.8104229091239958 -0.5658149806056227 -0.0010393977018535601 -0.018188472073258136
70900000000.0 -0.0010795316351999153 -0.01819292621077 0.8099263858760954 -0.5665274803314415 0.8099313117290264 -0.566507916549832 -0.0010679336748007663 -0.018203829699548552
71000000000.0 -0.0011077647123449482 -0.01820790907778333 0.8094336055866812 -0.5672197681416208 0.8094390878197183 -0.5672003753022224 -0.001096489099561569 -0.018219115447146512
71100000000.0 -0.0011360089341214252 -0.018222829503364346 0.8089402064732318 -0.5679115616348298 0.8089462393800562 -0.5678923555087095 -0.0011250634426450694 -0.018234329308838917
71200000000.0 -0.0011642640424919123 -0.018237687688214706 0.8084461909858984 -0.5686028596917266 0.8084527684149289 -0.5685838558632385 -0.001153656171923086 -0.018249471288373596
71300000000.0 -0.0011925297859846824 -0.018252483836049018 0.8079515615883317 -0.5692936612539914 0.8079586769487431 -0.5692748751082615 -0.0011822667569094422 -0.018264541400403112
71400000000.0 -0.0012208059197433513 -0.01826721815340657 0.8074563207559384 -0.569983965324576 0.8074639670240253 -0.5699654120351776 -0.0012108946690386655 -0.018279539670415117
71500000000.0 -0.0012490922055767054 -0.018281890849465614 0.8069604709741243 -0.5706737709679024 0.8069686407000112 -0.570655465484731 -0.001239539381942902 -0.01829446613466267
71600000000.0 -0.001277388412001053 -0.01829650213585212 0.8064640147365408 -0.5713630773100055 0.8064727000512311 -0.5713450343473666 -0.0012682003717281482 -0.01830932084008077
71700000000.0 -0.0013056943142783599 -0.018311052226451442 0.8059669545433341 -0.5720518835386352 0.8059761471660878 -0.5720341175635507 -0.0012968771172410939 -0.018324103844199927
71800000000.0 -0.0013340096944472407 -0.018325541337221293 0.8054692928993842 -0.5727401889032999 0.8054789841454247 -0.5727227141240451 -0.0013255691003414363 -0.01833881521505331
71900000000.0 -0.0013623343413509282 -0.018339969685997867 0.8049710323125585 -0.5734279927152651 0.8049812131010926 -0.5734108230701436 -0.0013542758061653136 -0.0183534550310729
72000000000.0 -0.0013906680506602896 -0.018354337492310458 0.8044721752919605 -0.5741152943474992 0.804482836154513 -0.5740984434938659 -0.001382996723388848 -0.018368023380983953
72100000000.0 -0.0014190106248869148 -0.01836864497719009 0.8039727243461879 -0.5748020932345742 0.8039838554352337 -0.5747855745381114 -0.0014117313444853515 -0.018382520363689297
72200000000.0 -0.0014473618733981148 -0.018382892362980303 0.8034726819815963 -0.5754883888725129 0.8034842730794926 -0.5754722153967738 -0.0014404791659813313 -0.01839694608814882
72300000000.0 -0.0014757216124223127 -0.018397079873148998 0.8029720507005671 -0.5761741808185873 0.8029840912287706 -0.5761583653148097 -0.0014692396887096043 -0.018411300673251633
72400000000.0 -0.0015040896650484466 -0.018411207732100674 0.8024708329997939 -0.5768594686910737 0.8024833120283528 -0.5768440235882726 -0.0014980124180537856 -0.0184255842476833
72500000000.0 -0.0015324658612242282 -0.018425276164988336 0.8019690313685667 -0.5775442521689504 0.8019819376258897 -0.5775291895643015 -0.0015267968641947528 -0.018439796949785276
72600000000.0 -0.0015608500377466267 -0.018439285397527302 0.8014666482870795 -0.5782285309915574 0.8014799701699608 -0.5782138626410717 -0.001555592542349317 -0.018453938927408826
72700000000.0 -0.001589242038247215 -0.018453235655808756 0.8009636862247446 -0.5789123049582009 0.8009774118086425 -0.5788980422677029 -0.001584398973005411 -0.018468010337763168
72800000000.0 -0.001617641713174754 -0.018467127166117 0.8004601476385231 -0.579595573927715 0.800474264688085 -0.5795817279441301 -0.001613215682151761 -0.01848201134725937
72900000000.0 -0.001646048919770201 -0.018480960154743747 0.7999560349712725 -0.5802783378179766 0.7999705309510899 -0.5802649192209323 -0.0016420422015060601 -0.018495942131344104
73000000000.0 -0.0016744635220386386 -0.018494734847807687 0.7994513506501102 -0.5809605966053717 0.7994662127357004 -0.5809476156991205 -0.0016708780687353978 -0.018509802874332848
73100000000.0 -0.0017028853907155106 -0.01850845147107559 0.7989460970847961 -0.5816423503242205 0.7989613121737997 -0.5816298170298924 -0.0016997228276718894 -0.018523593769236325
73200000000.0 -0.001731314403229674 -0.018522110249778297 0.7984402766661339 -0.5823235990661553 0.7984558313897167 -0.5823115229143381 -0.0017285760285256071 -0.018537315017577282
73300000000.0 -0.0017597504436594458 -0.018535711408439563 0.7979338917643933 -0.5830043429794519 0.7979497724988454 -0.5829927331031161 -0.0017574372280904913 -0.018550966829209887
73400000000.0 -0.0017881934026862504 -0.018549255170696458 0.7974269447277594 -0.5836845822683263 0.7974431376062748 -0.5836734473960877 -0.001786305989945867 -0.01856454942212676
73500000000.0 -0.0018166431775419648 -0.018562741759127428 0.7969194378807956 -0.5843643171921762 0.7969359288054353 -0.5843536656419122 -0.0018151818846510843 -0.018578063022266316
73600000000.0 -0.001845099671952671 -0.018576171395081807 0.7964113735229401 -0.5850435480647931 0.7964281481767528 -0.5850333877376067 -0.0018440644899372445 -0.018591507863312644
73700000000.0 -0.0018735627960791976 -0.018589544298509213 0.7959027539270235 -0.5857222752535236 0.7959197977863252 -0.5857126136280676 -0.0018729533908911967 -0.01860488418649149
73800000000.0 -0.001902032466450806 -0.018602860687793734 0.7953935813378143 -0.5864004991783976 0.7954108796846103 -0.5863913433055583 -0.001901848180134237 -0.018618192240362746
73900000000.0 -0.0019305086058971608 -0.018616120779588994 0.7948838579705924 -0.5870782203112112 0.7949013959051335 -0.5870695768091558 -0.0019307484579967216 -0.01863143228060739
74000000000.0 -0.0019589911434734777 -0.01862932478865622 0.79437358600975 -0.5877554391745757 0.7943913484632122 -0.5877473142241691 -0.0019596538326836508 -0.018644604569810777
74100000000.0 -0.001987480014384632 -0.01864247292770483 0.7938627676074255 -0.5884321563409263 0.7938807393547005 -0.5884245556815166 -0.001988563920437282 -0.01865770937724213
74200000000.0 -0.0020159751599038806 -0.018655565407236754 0.7933514048821658 -0.5891083724314948 0.793369570554754 -0.5891013013570726 -0.002017478345691542 -0.01867074697863182
74300000000.0 -0.0020444765272871314 -0.018668602435390633 0.7928394999176204 -0.5897840881152466 0.7928578440166136 -0.5897775514709795 -0.0020463967412228342 -0.01868371765594073
74400000000.0 -0.002072984069682866 -0.01868158421779322 0.7923270547612705 -0.5904593041077831 0.7923455616704158 -0.5904533062869285 -0.0020753187482900766 -0.018696621697131995
74500000000.0 -0.0021014977460424 -0.018694510957409264 0.7918140714231892 -0.5911340211702101 0.7918327254220187 -0.5911285661114054 -0.002104244016774099 -0.01870945939593432
74600000000.0 -0.002130017521021865 -0.018707382854397228 0.7913005518748386 -0.5918082401079732 0.7913193371518603 -0.5918033312929075 -0.002133172205306382 -0.018722231051605167
74700000000.0 -0.0021585433648820527 -0.01872020010596896 0.7907864980479031 -0.5924819617696617 0.7908053987138344 -0.5924776022211298 -0.00216210298139331 -0.01873493696869121
74800000000.0 -0.0021870752533863823 -0.018732962906248592 0.7902719118331539 -0.5931551870457833 0.7902909119341958 -0.5931513793261195 -0.0021910360215330682 -0.018747577456783116
74900000000.0 -0.00221561316769506 -0.01874567144613968 0.7897567950793571 -0.5938279168675065 0.7897758786104873 -0.5938246630774027 -0.0022199710113267788 -0.01876015283027225
75000000000.0 -0.0022441570942532984 -0.018758325913191303 0.7892411495922169 -0.5945001522053761 0.7892603005105012 -0.5944974539830827 -0.002248907645582381 -0.018772663408100104
75100000000.0 -0.0022727070246819888 -0.018770926491470684 0.7887249771333544 -0.5951718940680031 0.7887441793712598 -0.5951697525889112 -0.002277845628411658 -0.018785109513509632
75200000000.0 -0.002301262955659475 -0.018783473361439207 0.7882082794193337 -0.5958431435007252 0.7882275168980308 -0.5958415594773324 -0.002306784673322193 -0.01879749147379296
75300000000.0 -0.0023298248888041864 -0.018795966699828467 0.7876910581207177 -0.5965139015842447 0.7877103147633671 -0.5965128752664994 -0.002335724503299999 -0.01880980962003557
75400000000.0 -0.002358392830553501 -0.018808406679524953 0.7871733148611731 -0.5971841694332425 0.7871925746061788 -0.5971837006092693 -0.0023646648508874662 -0.01882206428686194
75500000000.0 -0.002386966792040027 -0.018820793469454793 0.7866550512166132 -0.5978539481949685 0.7866742980308367 -0.597854036192174 -0.002393605458253759 -0.01883425581217756
75600000000.0 -0.002415546788965473 -0.018833127234473723 0.7861362687143795 -0.5985232390478118 0.7861554866063035 -0.5985238827343625 -0.0024225460772580878 -0.01884638453691003
75700000000.0 -0.0024441328414706595 -0.018845408135261626 0.785616968832472 -0.5991920431998489 0.7856361418652994 -0.5991932409865287 -0.0024514864695074977 -0.01885845080475013
75800000000.0 -0.002472724974006886 -0.01885763632821735 0.785097152998817 -0.5998603618873767 0.7851162653034972 -0.599862111729812 -0.002480426406404764 -0.018870454961889452
75900000000.0 -0.0025013232152001196 -0.018869811965362793 0.7845768225905789 -0.6005281963734236 0.7845958583787523 -0.6005304957746799 -0.002509365669194548 -0.018882397356759943
76000000000.0 -0.002529927597718053 -0.0188819351942469 0.7840559789335179 -0.6011955479462475 0.7840749225103657 -0.6011983939597937 -0.0025383040489961478 -0.01889427833977223
76100000000.0 -0.0025585381581310564 -0.018894006157854096 0.7835346233013892 -0.6018624179178179 0.7835534590783778 -0.6018658071508499 -0.002567241346835221 -0.018906098263051088
76200000000.0 -0.00258715493677413 -0.018906024994518583 0.7830127569153873 -0.6025288076222822 0.7830314694229004 -0.6025327362394106 -0.002596177373665569 -0.018917857480174254
76300000000.0 -0.002615777977606115 -0.018917991837841566 0.7824903809436364 -0.6031947184144228 0.7825089548434795 -0.6031991821417121 -0.0026251119503846974 -0.018929556345909336
76400000000.0 -0.002644407328066737 -0.018929906816611525 0.7819674965007217 -0.6038601516681011 0.7819859165984958 -0.6038651457974633 -0.0026540449078423663 -0.018941195215950113
76500000000.0 -0.002673043038933062 -0.018941770054730196 0.7814441046472689 -0.6045251087746906 0.7814623559045983 -0.6045306281686251 -0.002682976086843494 -0.01895277444665431
76600000000.0 -0.002701685164174346 -0.01895358167114197 0.7809202063895699 -0.605189591141504 0.780938273936175 -0.6051956302381793 -0.002711905338141841 -0.018964294394781943
76700000000.0 -0.00273033376080558 -0.0189653417797678 0.7803958026792488 -0.6058536001902111 0.7804136718248565 -0.605860153008885 -0.0027408325224296077 -0.018975755417233932
76800000000.0 -0.0027589888887400724 -0.018977050489441937 0.7798708944129792 -0.606517137355251 0.7798885506590609 -0.6065241975020219 -0.0027697575103189888 -0.018987157870790326
76900000000.0 -0.00278765061063957 -0.018988707903854995 0.7793454824322436 -0.6071802040822407 0.7793629114835695 -0.6071877647561263 -0.002798680182316124 -0.01899850211185198
77000000000.0 -0.0028163189917657424 -0.01900031412149888 0.778819567523139 -0.6078428018263767 0.7788367552991432 -0.607850855825715 -0.002827600428790964 -0.019009788496180995
77100000000.0 -0.002844994099830737 -0.0190118692356182 0.7782931504162274 -0.6085049320508397 0.7783100830621732 -0.6085134717800029 -0.002856518149937766 -0.019021017378644547
77200000000.0 -0.0028736760048429857 -0.019023373334163016 0.7777662317864354 -0.6091665962251954 0.777782895684368 -0.609175613701613 -0.002885433255730716 -0.019032189112957655
77300000000.0 -0.002902364778959684 -0.019034826499748296 0.7772388122529933 -0.609827795823794 0.7772551940324811 -0.6098372826852804 -0.002914345665872075 -0.01904330405143005
77400000000.0 -0.0029310604963312817 -0.019046228809616966 0.7767108923794245 -0.6104885323241767 0.7767269789280716 -0.6104984798365525 -0.002943255309734952 -0.019054362544714102
77500000000.0 -0.002959763232950681 -0.019057580335605912 0.7761824726735774 -0.6111488072054793 0.7761982511473045 -0.6111592062704817 -0.0029721621262980406 -0.01906536494155381
77600000000.0 -0.002988473066501344 -0.019068881144117186 0.7756535535877036 -0.6118086219468442 0.7756690114207857 -0.6118194631103205 -0.0030010660640767844 -0.019076311588536902
77700000000.0 -0.0030171900762025047 -0.019080131296093178 0.7751241355185821 -0.6124679780258363 0.7751392604334383 -0.6124792514862102 -0.003029967081044531 -0.019087202829848937
77800000000.0 -0.003045914342657913 -0.019091330846995262 0.7745942188076832 -0.6131268769168665 0.7746089988244103 -0.6131385725338707 -0.0030588651445504623 -0.019098039007029225
77900000000.0 -0.003074645947703228 -0.0191024798467878 0.7740638037413812 -0.6137853200896206 0.7740782271870251 -0.6137974273932919 -0.0030877602312308645 -0.019108820458730864
78000000000.0 -0.0031033849742526454 -0.019113578339924987 0.7735328905512112 -0.614443309007502 0.7735469460687656 -0.6144558172074245 -0.003116652326912325 -0.019119547520481967
78100000000.0 -0.003132131506147958 -0.019124626365342134 0.7730014794141657 -0.6151008451260808 0.7730151559712949 -0.6151137431208729 -0.0031455414265127036 -0.019130220524450448
78200000000.0 -0.003160885628006026 -0.01913562395645127 0.7724695704530378 -0.6157579298915564 0.7724828573505158 -0.6157712062785932 -0.003174427533932153 -0.019140839799211818
78300000000.0 -0.0031896474250675006 -0.019146571141140163 0.7719371637368047 -0.6164145647392332 0.7719500506166636 -0.616428207824595 -0.003203310661941456 -0.01915140566952012
78400000000.0 -0.0032184169830478 -0.019157467941775874 0.7714042592810568 -0.6170707510920096 0.7714167361344416 -0.6170847489006481 -0.0032321908320633043 -0.019161918456082283
78500000000.0 -0.0032471943879855687 -0.019168314375212093 0.7708708570484656 -0.617726490358882 0.7708829142231841 -0.6177408306449959 -0.0032610680744479515 -0.019172378475335976
78600000000.0 -0.0032759797260949286 -0.01917911045279915 0.7703369569492912 -0.6183817839334661 0.7703485851570605 -0.6183964541910763 -0.0032899424277437 -0.01918278603923
78700000000.0 -0.003304773083616726 -0.019189856180400137 0.769802558841937 -0.6190366331925343 0.7698137491653162 -0.6190516206662512 -0.0033188139389625187 -0.01919314145501044
78800000000.0 -0.0033335745466720303 -0.019200551558408784 0.769267662533539 -0.6196910394945745 0.7692784064325425 -0.6197063311905455 -0.0033476826633386503 -0.019203445025008866
78900000000.0 -0.0033623842011162174 -0.019211196581771724 0.7687322677805958 -0.6203450041783639 0.7687425570989895 -0.6203605868753959 -0.0033765486641843838 -0.0192136970464349
79000000000.0 -0.0033912021323949976 -0.01922179124001575 0.7681963742896389 -0.6209985285615691 0.7682062012609058 -0.6210143888224108 -0.0034054120127394788 -0.019223897811174537
79100000000.0 -0.0034200284253989286 -0.01923233551727584 0.7676599817179399 -0.6216516139393634 0.7676693389709175 -0.6216677381221453 -0.0034342727880146092 -0.019234047605589548
79200000000.0 -0.0034488631643246185 -0.019242829392329328 0.767123089674256 -0.6223042615830683 0.7671319702384407 -0.6223206358528836 -0.003463131076632475 -0.019244146710323918
79300000000.0 -0.0034777064325328586 -0.01925327283863276 0.7665856977196109 -0.6229564727388204 0.7665940950301213 -0.6229730830794422 -0.0034919869726625892 -0.019254195400113576
79400000000.0 -0.003506558312407767 -0.01926366582436193 0.7660478053681147 -0.6236082486262621 0.7660557132703169 -0.6236250808519841 -0.0035208405774509754 -0.019264193943600932
79500000000.0 -0.003535418885223955 -0.01927400831245511 0.7655094120878161 -0.6242595904372569 0.7655168248416042 -0.6242766302048481 -0.0035496919994468393 -0.019274142603153292
79600000000.0 -0.0035642882310068973 -0.01928430026066164 0.7649705173015908 -0.6249104993346332 0.7649774295853181 -0.6249277321553998 -0.003578541354025874 -0.01928404163468879
79700000000.0 -0.003593166428402481 -0.01929454162159015 0.7644311203880619 -0.6255609764509543 0.7644375273021274 -0.6255783877028939 -0.003607388763303906 -0.019293891287502453
79800000000.0 -0.0036220535545427495 -0.01930473234276371 0.7638912206825558 -0.6262110228873182 0.7638971177526367 -0.6262285978273595 -0.003636234355954382 -0.01930369180410197
79900000000.0 -0.0036509496849185122 -0.019314872366675746 0.7633508174780878 -0.6268606397121853 0.763356200658018 -0.6268783634885037 -0.0036650782670155455 -0.019313443420045505
80000000000.0 -0.0036798548932491914 -0.019324961630849846 0.7628099100263791 -0.6275098279602397 0.7628147757006742 -0.6275276856246336 -0.0036939206376971046 -0.019323146363785765
80100000000.0 -0.003708769251359926 -0.01933500006790284 0.7622684975389058 -0.6281585886312742 0.7622728425249331 -0.6281765651516016 -0.0037227616151821108 -0.019332800856519283
80200000000.0 -0.0037376928290553746 -0.019344987605610008 0.7617265791879732 -0.6288069226891172 0.7617304007377621 -0.6288250029617697 -0.003751601352424985 -0.019342407112040414
80300000000.0 -0.0037666256940012523 -0.019354924166974746 0.7611841541078223 -0.6294548310605838 0.7611874499095193 -0.629472999923 -0.0037804400079480887 -0.019351965336602207
80400000000.0 -0.003795567911603167 -0.01936480967029856 0.7606412213957646 -0.6301023146344635 0.760643989574727 -0.6301205568776624 -0.0038092777456328235 -0.01936147572878041
80500000000.0 -0.003824519544892111 -0.019374644029256687 0.7600977801133338 -0.6307493742605422 0.7601000192328695 -0.6307676746416728 -0.0038381147345077204 -0.019370938479345373
80600000000.0 -0.003853480654408515 -0.01938442715297289 0.7595538292874771 -0.6313960107486587 0.7595555383492222 -0.6314143540035518 -0.003866951148536132 -0.01938035377113701
80700000000.0 -0.0038824512980923267 -0.019394158946101088 0.7590093679117589 -0.6320422248677946 0.7590105463556998 -0.6320605957235071 -0.003895787166397865 -0.01938972177894864
80800000000.0 -0.003911431531173822 -0.01940383930890573 0.7584643949475934 -0.6326880173452033 0.7584650426517315 -0.6327064005325471 -0.003924622971270618 -0.019399042669413485
80900000000.0 -0.003940421406065832 -0.01941346813734611 0.7579189093254991 -0.6333333888655726 0.7579190266051573 -0.633351769131615 -0.003953458750607904 -0.019408316600898753
81000000000.0 -0.00396942097226115 -0.019423045323163197 0.757372909946371 -0.6339783400702249 0.7573724975531488 -0.6339967021907541 -0.003982294695914527 -0.019417543723404467
81100000000.0 -0.003998430276232093 -0.019432570753968682 0.7568263956827775 -0.6346228715563577 0.7568254548031526 -0.6346412003482996 -0.004011131002519273 -0.019426724178469346
81200000000.0 -0.004027449361330686 -0.019442044313335422 0.756279365380273 -0.635266983876318 0.7562778976338477 -0.6352852642100953 -0.004039967869347812 -0.019435858099081268
81300000000.0 -0.0040564782676936854 -0.019451465880890972 0.7557318178587297 -0.6359106775369174 0.7557298252961325 -0.6359288943487446 -0.0040688054986911274 -0.019444945609595168
81400000000.0 -0.004085517032150566 -0.019460835332412007 0.755183751913685 -0.6365539529987866 0.7551812370141233 -0.6365720913028855 -0.004097644095974009 -0.019453986825654992
81500000000.0 -0.004114565688132084 -0.019470152539922098 0.7546351663177057 -0.637196810675767 0.7546321319861751 -0.6372148555764983 -0.0041264838695207655 -0.019462981854124033
81600000000.0 -0.004143624265585704 -0.019479417371789504 0.7540860598217657 -0.6378392509343441 0.7540825093859175 -0.6378571876382414 -0.00415532503031991 -0.019471930793018632
81700000000.0 -0.004172692790889041 -0.01948862969282914 0.7535364311566388 -0.6384812740931216 0.7535323683633095 -0.638499087920821 -0.004184167791788334 -0.019480833731451007
81800000000.0 -0.004201771286770541 -0.01949778936440297 0.7529862790343004 -0.639122880422331 0.7529817080457067 -0.639140556820385 -0.004213012369533659 -0.019489690749575184
81900000000.0 -0.0042308597722294184 -0.019506896244524556 0.752435602149343 -0.6397640701433879 0.7524305275389479 -0.6397815946959556 -0.004241858981114206 -0.019498501918540193
82000000000.0 -0.004259958262463709 -0.019515950187965675 0.7518843991804007 -0.6404048434284835 0.7518788259284493 -0.6404222018688891 -0.004270707845801298 -0.019507267300451752
82100000000.0 -0.004289066768794874 -0.01952495104635959 0.7513326687915832 -0.6410452004002233 0.7513266022803173 -0.6410623786223671 -0.004299559184338974 -0.019515986948334344
82200000000.0 -0.004318185298601019 -0.019533898668312996 0.7507804096339147 -0.6416851411312984 0.7507738556424718 -0.6417021252009243 -0.004328413218702492 -0.01952466090610674
82300000000.0 -0.00434731385524941 -0.019542792899511767 0.7502276203467817 -0.6423246656442086 0.750220585045776 -0.6423414418100032 -0.0043572701718582055 -0.019533289208556633
82400000000.0 -0.004376452438034224 -0.019551633582833083 0.7496742995593862 -0.6429637739110164 0.7496667895051856 -0.6429803286155461 -0.00438613026752232 -0.019541871881326875
82500000000.0 -0.004405601042117528 -0.019560420558456824 0.7491204458922014 -0.6436024658531494 0.7491124680208975 -0.6436187857436154 -0.004414993729919559 -0.01955040894090437
82600000000.0 -0.004434759658471279 -0.019569153663976928 0.7485660579584303 -0.6442407413412414 0.7485576195795135 -0.6442568132800535 -0.004443860783542349 -0.019558900394616968
82700000000.0 -0.004463928273824446 -0.019577832734514945 0.7480111343654665 -0.6448786001950166 0.7480022431552071 -0.6448944112701683 -0.00447273165291005 -0.01956734624063494
82800000000.0 -0.004493106870611752 -0.019586457602834464 0.7474556737163577 -0.6455160421832123 0.7474463377109007 -0.645531579718459 -0.004501606562328865 -0.019575746467980597
82900000000.0 -0.004522295426927773 -0.019595028099455025 0.7468996746112627 -0.6461530670235459 0.7468899021994448 -0.6461683185883695 -0.004530485735650898 -0.01958410105654119
83000000000.0 -0.004551493916481435 -0.019603544052767742 0.7463431356489149 -0.646789674382722 0.7463329355648036 -0.6468046278020817 -0.004559369396037222 -0.01959240997709061
83100000000.0 -0.004580702308555449 -0.019612005289151992 0.7457860554280739 -0.6474258638764792 0.7457754367432435 -0.6474405072403353 -0.004588257765717461 -0.01960067319131581
83200000000.0 -0.004609920567967988 -0.019620411633089946 0.7452284325489805 -0.6480616350696812 0.7452174046645236 -0.6480759567422884 -0.004617151065753748 -0.019608890651848274
83300000000.0 -0.004639148655038025 -0.019628762907284648 0.7446702656148033 -0.6486969874764466 0.7446588382530902 -0.648710976105406 -0.004646049515805342 -0.019617062302303128
83400000000.0 -0.00466838652555386 -0.019637058932776785 0.7441115532330767 -0.6493319205603172 0.7440997364292699 -0.649345565085386 -0.004674953333891601 -0.01962518807732357
83500000000.0 -0.004697634130742951 -0.019645299529060162 0.7435522940171371 -0.6499664337344723 0.7435400981104624 -0.6499797233961175 -0.004703862736162119 -0.019633267902629533
83600000000.0 -0.004726891417248534 -0.019653484514201958 0.7429924865875446 -0.6506005263619762 0.7429799222123329 -0.6506134507096718 -0.004732777936662019 -0.019641301695076087
83700000000.0 -0.00475615832710557 -0.0196616137049573 0.7424321295734986 -0.6512341977560694 0.7424192076500038 -0.6512467466563282 -0.004761699147103793 -0.01964928936271231
83800000000.0 -0.004785434797720929 -0.019669686916888002 0.7418712216142423 -0.6518674471805013 0.7418579533392411 -0.651879610824633 -0.004790626576638083 -0.019657230804850816
83900000000.0 -0.004814720761858391 -0.01967770396447935 0.7413097613604545 -0.6525002738498961 0.741296158197637 -0.6525120427614927 -0.00481956043162899 -0.01966512591213978
84000000000.0 -0.004844016147623537 -0.01968566466125637 0.7407477474756273 -0.6531326769301607 0.74073382114579 -0.6531440419722949 -0.004848500915429096 -0.019672974566640727
84100000000.0 -0.004873320878454517 -0.019693568819901898 0.7401851786374327 -0.653764655538931 0.7401709411084764 -0.6537756079210699 -0.004877448228158026 -0.01968077664191405
84200000000.0 -0.004902634873113956 -0.019701416252371956 0.7396220535390721 -0.6543962087460554 0.739607517015816 -0.6544067400306812 -0.004906402566484231 -0.019688532003108425
84300000000.0 -0.0049319580456838414 -0.019709206770011305 0.7390583708906103 -0.6550273355741145 0.7390435478044334 -0.6550374376830448 -0.004935364123406694 -0.019696240507053604
84400000000.0 -0.004961290305565132 -0.019716940183670213 0.7384941294202926 -0.6556580349989789 0.7384790324186052 -0.6556677002193881 -0.004964333088042919 -0.01970390200236436
84500000000.0 -0.004990631557477463 -0.019724616303817347 0.7379293278758429 -0.6562883059504021 0.7379139698114017 -0.6562975269405347 -0.004993309645415884 -0.019711516329541035
84600000000.0 -0.005019981701464565 -0.019732234940656214 0.7373639650257446 -0.6569181473126505 0.737348358945818 -0.6569269171072218 -0.005022293976247249 -0.019719083321085233
84700000000.0 -0.005049340632899976 -0.01973979590423671 0.736798039660499 -0.6575475579251652 0.7367821987958939 -0.6575558699404519 -0.00505128625675127 -0.019726602801611353
84800000000.0 -0.005078708242497553 -0.019747299004568727 0.7362315505938659 -0.6581765365832625 0.7362154883478199 -0.6581843846218701 -0.005080286658433692 -0.019734074587969736
84900000000.0 -0.005108084416322466 -0.01975474405173419 0.7356644966640777 -0.6588050820388649 0.7356482266010336 -0.6588124602941776 -0.005109295347892551 -0.019741498489371304
85000000000.0 -0.0051374690358084564 -0.019762130855997612 0.7350968767350375 -0.6594331930012656 0.735080412569301 -0.6594400960615697 -0.005138312486623101 -0.019748874307517577
85100000000.0 -0.005166861977773514 -0.01976945922791604 0.734528689697485 -0.660060868137927 0.7345120452817834 -0.6600672909902076 -0.00516733823082511 -0.019756201836736178
85200000000.0 -0.005196263114440875 -0.019776728978447962 0.7339599344701462 -0.6606881060753096 0.7339431237840881 -0.6606940441087162 -0.005196372731216695 -0.019763480864120466
85300000000.0 -0.005225672313462205 -0.019783939919061397 0.7333906100008523 -0.6613149053997299 0.7333736471393065 -0.661320354408713 -0.005225416132848281 -0.019770711169673626
85400000000.0 -0.005255089437943776 -0.019791091861840544 0.7328207152676322 -0.6619412646582538 0.7328036144290314 -0.661946220845363 -0.005254468574922791 -0.019777892526457033
85500000000.0 -0.005284514346472445 -0.019798184619591378 0.7322502492797833 -0.6625671823596125 0.7322330247543601 -0.6625716423379636 -0.005283530190618882 -0.019785024700744235
85600000000.0 -0.005313946893146583 -0.019805218005944984 0.7316792110789099 -0.6631926569751537 0.731661877236877 -0.6631966177705543 -0.0053126011069182895 -0.019792107452176362
85700000000.0 -0.005343386927611419 -0.019812191835460888 0.7311075997399314 -0.6638176869398141 0.7310901710196179 -0.6638211459925533 -0.005341681444438012 -0.019799140533924564
85800000000.0 -0.0053728342950903705 -0.019819105923729503 0.7305354143720669 -0.6644422706531241 0.7305179052680165 -0.6644452258194212 -0.005370771317266089 -0.019806123692855445
85900000000.0 -0.005402288836424916 -0.01982596008747007 0.7299626541197873 -0.6650664064802355 0.7299450791708278 -0.6650688560333499 -0.005399870832800739 -0.019813056669698684
86000000000.0 -0.005431750388113337 -0.019832754144631377 0.7293893181637331 -0.6656900927529743 0.729371691941032 -0.6656920353839755 -0.005428980091596542 -0.019819939199222446
86100000000.0 -0.005461218782353579 -0.01983948791448706 0.7288154057216075 -0.6663133277709199 0.7287977428167166 -0.6663147625891148 -0.005458099187213295 -0.019826771010407276
86200000000.0 -0.005490693847085119 -0.019846161217731535 0.7282409160490324 -0.666936109802506 0.7282232310619353 -0.6669370363355267 -0.005487228206068797 -0.019833551826627795
86300000000.0 -0.005520175406037688 -0.019852773876574532 0.7276658484403751 -0.667558437086143 0.7276481559675473 -0.6675588552796965 -0.005516367227297934 -0.01984028136583597
86400000000.0 -0.005549663278777281 -0.01985932571483199 0.7270902022295369 -0.6681803078313637 0.7270725168520268 -0.6681802180486401 -0.005545516322616483 -0.01984695934074692
86500000000.0 -0.005579157280756959 -0.01986581655801689 0.7265139767907175 -0.668801720219988 0.7264963130622549 -0.6688011232407314 -0.005574675556188173 -0.019853585459030574
86600000000.0 -0.005608657223369671 -0.01987224623342831 0.7259371715391338 -0.6694226724073091 0.7259195439742847 -0.6694215694265525 -0.005603844984498156 -0.019860159423503238
86700000000.0 -0.005638162914000987 -0.01987861457023792 0.7253597859317125 -0.6700431625232954 0.725342208994078 -0.6700415551497579 -0.005633024656230961 -0.0198666809323241
86800000000.0 -0.005667674156084755 -0.019884921399574776 0.7247818194677436 -0.6706631886738117 0.724764307558221 -0.6706610789279642 -0.005662214612152895 -0.01987314967919423
86900000000.0 -0.005697190749160871 -0.01989116655460873 0.7242032716894999 -0.6712827489418565 0.7241858391346118 -0.671280139253655 -0.005691414885000903 -0.019879565353557435
87000000000.0 -0.0057267124889346195 -0.019897349870631117 0.7236241421828196 -0.671901841388815 0.7236068032231203 -0.6718987345951049 -0.005720625499375318 -0.019885927640803974
87100000000.0 -0.005756239167337008 -0.019903471185135305 0.7230444305776533 -0.6725204640557264 0.7230271993562228 -0.6725168633973184 -0.005749846471638049 -0.019892236222478297
87200000000.0 -0.005785770572586884 -0.01990953033789262 0.7224641365485738 -0.6731386149645638 0.7224470270996085 -0.6731345240829891 -0.005779077809816933 -0.0198984907764859
87300000000.0 -0.005815306489255013 -0.0199155271710289 0.7218832598152476 -0.6737562921195269 0.7218662860527564 -0.6737517150534691 -0.005808319513513937 -0.019904690977305194
87400000000.0 -0.005844846698328828 -0.019921461529096324 0.7213018001428735 -0.6743734935083461 0.7212849758494873 -0.6743684346897566 -0.005837571573820211 -0.019910836496199513
87500000000.0 -0.005874390977279904 -0.01992733325914661 0.720719757342578 -0.6749902171035984 0.7207030961584823 -0.6749846813534982 -0.005866833973235453 -0.019916927001432782
87600000000.0 -0.0059039391001301745 -0.019933142210798428 0.7201371312717769 -0.6756064608640293 0.7201206466837773 -0.6756004533879982 -0.005896106685592661 -0.019922962158483985
87700000000.0 -0.005933490837523569 -0.019938888236306174 0.7195539218344972 -0.6762222227358834 0.7195376271652273 -0.6762157491192488 -0.005925389675990015 -0.01992894163026732
87800000000.0 -0.005963045956793423 -0.019944571190623758 0.7189701289816606 -0.6768375006542464 0.7189540373789343 -0.6768305668569636 -0.005954682900725788 -0.019934865077349845
87900000000.0 -0.005992604222036106 -0.01995019093146804 0.7183857527113306 -0.6774522925443848 0.7183698771376569 -0.6774449048956269 -0.005983986307240251 -0.019940732158172717
88000000000.0 -0.006022165394183113 -0.019955747319380122 0.7178007930689186 -0.6780665963230981 0.7177851462911786 -0.6780587615155484 -0.006013299834064251 -0.019946542529273817
88100000000.0 -0.006051729231073594 -0.01996124021778302 0.717215250147354 -0.6786804099000717 0.7171998447266537 -0.6786721349839316 -0.006042623410769489 -0.019952295845508977
88200000000.0 -0.006081295487530155 -0.019966669493038863 0.7166291240872134 -0.6792937311792313 0.716613972368918 -0.6792850235559447 -0.00607195695792927 -0.019957991760277283
88300000000.0 -0.006110863915433502 -0.019972035014503807 0.716042415076813 -0.6799065580601005 0.7160275291807716 -0.6798974254758032 -0.006101300387081586 -0.019963629925744894
88400000000.0 -0.006140434263797939 -0.01997733665457818 0.715455123352263 -0.680518888439157 0.7154405151632292 -0.680509338977855 -0.006130653600698128 -0.019969209993070402
88500000000.0 -0.006170006278850222 -0.01998257428875867 0.7148672491974799 -0.6811307202111926 0.7148529303557368 -0.6811207622876733 -0.006160016492160995 -0.019974731612630463
88600000000.0 -0.00619957970410569 -0.019987747795685087 0.7142787929441649 -0.6817420512706649 0.714264774836366 -0.6817316936231522 -0.006189388945741731 -0.01998019443424524
88700000000.0 -0.006229154280446148 -0.019992857057186262 0.7136897549717425 -0.6823528795130531 0.7136760487219663 -0.6823421311956079 -0.006218770836590151 -0.019985598107405893
88800000000.0 -0.006258729746199906 -0.019997901958323128 0.7131001357072579 -0.6829632028362035 0.7130867521682939 -0.682952073210879 -0.006248162030723928 -0.019990942281499044
88900000000.0 -0.006288305837221104 -0.020002882387430438 0.7125099356252416 -0.6835730191416741 0.712496885370105 -0.6835615178704327 -0.006277562385028173 -0.019996226606034114
89000000000.0 -0.006317882286968081 -0.020007798236154953 0.7119191552475317 -0.6841823263360739 0.7119064485612214 -0.6841704633724688 -0.006306971747258239 -0.02000145073086903
89100000000.0 -0.006347458826584665 -0.02001264939949397 0.7113277951430612 -0.6847911223323911 0.7113154420145597 -0.6847789079130248 -0.006336389956048454 -0.02000661430643534
89200000000.0 -0.006377035184980936 -0.020017435775828138 0.7107358559276082 -0.6853994050513178 0.7107238660421363 -0.6853868496870815 -0.006365816840926907 -0.020011716983963757
89300000000.0 -0.006406611088913169 -0.02002215726695566 0.710143338263505 -0.6860071724225614 0.7101317209950346 -0.6859942868896635 -0.006395252222335477 -0.020016758415707818
89400000000.0 -0.006436186263065114 -0.020026813778120982 0.709550242859317 -0.6866144223861493 0.7095390072633453 -0.6866012177169407 -0.00642469591165568 -0.020021738255168654
89500000000.0 -0.006465760430129941 -0.02003140521804443 0.7089565704694795 -0.6872211528937208 0.7089457252760738 -0.6872076403673234 -0.006454147711239418 -0.02002665615731688
89600000000.0 -0.006495333310889374 -0.020035931498947737 0.7083623218939018 -0.6878273619098056 0.7083518755010185 -0.687813553042556 -0.006483607414445818 -0.020031511778813793
89700000000.0 -0.006524904624297996 -0.020040392536577245 0.707767497977533 -0.6884330474130926 0.7077574584446167 -0.6884189539488029 -0.006513074805682923 -0.02003630477823293
89800000000.0 -0.006554474087561851 -0.020044788250227867 0.7071720996098965 -0.6890382073976807 0.7071624746517619 -0.6890238412977286 -0.006542549660456281 -0.020041034816278207
89900000000.0 -0.0065840414162212976 -0.020049118562760225 0.7065761277245842 -0.6896428398743177 0.7065669247055882 -0.6896282133075742 -0.006572031745420326 -0.020045701556002934
90000000000.0 -0.006613606324230821 -0.020053383400619542 0.7059795832987241 -0.6902469428716198 0.7059708092272295 -0.6902320682042196 -0.006601520818437303 -0.020050304663024685
90100000000.0 -0.0066431685240418824 -0.02005758269385222 0.7053824673524033 -0.6908505144372767 0.7053741288755435 -0.6908354042222461 -0.006631016628640529 -0.020054843805739568
90200000000.0 -0.006672727726680785 -0.020061716376117394 0.7047847809480695 -0.691453552639239 0.70477688434681 -0.691438219605981 -0.006660518916503456 -0.020059318655536364
90300000000.0 -0.00670228364183223 -0.020065784384699012 0.7041865251898927 -0.6920560555668839 0.7041790763743984 -0.6920405126105375 -0.006690027413912995 -0.020063728887004247
90400000000.0 -0.006731835977917197 -0.020069786660518167 0.7035877012230943 -0.6926580213321626 0.7035807057284079 -0.6926422815028412 -0.006719541844247981 -0.02006807417814541
90500000000.0 -0.006761384442172626 -0.020073723148135637 0.7029883102332497 -0.6932594480707297 0.7029817732152772 -0.6932435245626468 -0.00674906192246473 -0.0200723542105775
90600000000.0 -0.006790928740733109 -0.02007759379576082 0.702388353445555 -0.6938603339430457 0.7023822796773682 -0.6938442400835381 -0.006778587355185009 -0.020076568669739475
90700000000.0 -0.006820468578705945 -0.020081398555256362 0.7017878321240661 -0.6944606771354618 0.7017822259925213 -0.6944444263739216 -0.006808117840788825 -0.020080717245093
90800000000.0 -0.006850003660253041 -0.02008513738213584 0.7011867475709085 -0.6950604758612801 0.7011816130735825 -0.6950440817579993 -0.006837653069516159 -0.020084799630319422
90900000000.0 -0.006879533688666134 -0.02008881023556846 0.7005851011254562 -0.6956597283617869 0.7005804418679047 -0.695643204576729 -0.006867192723567643 -0.020088815523519765
91000000000.0 -0.006909058366445686 -0.020092417078373292 0.6999828941634841 -0.6962584329072679 0.6999787133568238 -0.6962417931887724 -0.0068967364772149035 -0.02009276462740482
91100000000.0 -0.006938577395374946 -0.020095957877018154 0.6993801280962917 -0.6968565877979898 0.6993764285551063 -0.6968398459714199 -0.006926283996911426 -0.020096646649485538
91200000000.0 -0.006968090476598646 -0.020099432601612156 0.6987768043698027 -0.6974541913651631 0.6987735885103724 -0.6974373613215071 -0.006955834941412399 -0.020100461302263336
91300000000.0 -0.0069975973106960535 -0.020102841225900624 0.698172924463636 -0.6980512419718715 0.6981701943024956 -0.6980343376563041 -0.0069853889618952045 -0.02010420830341145
91400000000.0 -0.007027097597755726 -0.02010618372725394 0.6975684898901505 -0.6986477380139793 0.6975662470429775 -0.6986307734143968 -0.007014945702085503 -0.02010788737595713
91500000000.0 -0.0070565910374489685 -0.020109460086658208 0.6969635021934721 -0.6992436779210054 0.6969617478742979 -0.6992266670565387 -0.007044504798389972 -0.02011149824845923
91600000000.0 -0.007086077329102247 -0.020112670288702703 0.6963579629484901 -0.6998390601569723 0.6963566979692406 -0.6998220170664916 -0.007074065880028135 -0.0201150406551813
91700000000.0 -0.007115556171769565 -0.020115814321565933 0.6957518737598327 -0.7004338832212237 0.6957510985302 -0.7004168219518417 -0.007103628569173756 -0.020118514336265395
91800000000.0 -0.007145027264302129 -0.02011889217700081 0.6951452362608241 -0.7010281456492125 0.6951449507884635 -0.7010110802447963 -0.007133192481097399 -0.020121919037894124
91900000000.0 -0.007174490305418811 -0.020121903850316116 0.6945380521124187 -0.7016218460132545 0.6945382560034712 -0.7016047905029565 -0.007162757224312487 -0.020125254512458064
92000000000.0 -0.007203944993775332 -0.02012484934036001 0.6939303230021127 -0.7022149829232586 0.6939310154620589 -0.7021979513100732 -0.007192322400727057 -0.020128520518713184
92100000000.0 -0.007233391028031063 -0.02012772864949815 0.6933220506428421 -0.7028075550274181 0.6933232304776764 -0.7027905612767755 -0.007221887605798266 -0.020131716821935413
92200000000.0 -0.007262828106916741 -0.02013054178359442 0.6927132367718584 -0.703399561012871 0.6927149023895885 -0.703382619041277 -0.007251452428689697 -0.02013484319407463
92300000000.0 -0.007292255929299097 -0.020133288751986195 0.6921038831495883 -0.7039909996063307 0.6921060325620586 -0.7039741232700614 -0.007281016452433932 -0.020137899413899093
92400000000.0 -0.007321674194247583 -0.020135969567461748 0.6914939915584776 -0.7045818695746803 0.6914966223835101 -0.7045650726585393 -0.007310579254097467 -0.020140885267140245
92500000000.0 -0.0073510826010942595 -0.02013858424623439 0.6908835638018201 -0.7051721697255343 0.6908866732656755 -0.7051554659316854 -0.007340140404948969 -0.020143800546631313
92600000000.0 -0.0073804808494996 -0.020141132807915667 0.6902726017025709 -0.7057618989077664 0.6902761866427248 -0.705745301844648 -0.007369699470630743 -0.02014664505244035
92700000000.0 -0.007409868639511786 -0.0201436152754874 0.6896611071021489 -0.7063510560120024 0.6896651639703801 -0.7063345791833302 -0.007399256011334002 -0.020149418592001696
92800000000.0 -0.0074392456716266195 -0.02014603167527395 0.6890490818592225 -0.706939639971079 0.6890536067250133 -0.7069232967649524 -0.007428809581975674 -0.020152120980241814
92900000000.0 -0.007468611646847159 -0.02014838203691005 0.688436527848491 -0.7075276497604686 0.6884415164027325 -0.7075114534385832 -0.007458359732379584 -0.020154752039697327
93000000000.0 -0.0074979662667399504 -0.020150666393311634 0.6878234469594473 -0.7081150843986649 0.6878288945184485 -0.7080990480856415 -0.007487906007459181 -0.020157311600635133
93100000000.0 -0.0075273092334920445 -0.02015288478064187 0.6872098410951395 -0.7087019429475376 0.6872157426049386 -0.7086860796203802 -0.007517447947403866 -0.02015979950116165
93200000000.0 -0.007556640249966611 -0.02015503723827912 0.6865957121709181 -0.7092882245126504 0.6866020622118848 -0.7092725469903339 -0.00754698508786754 -0.020162215587329894
93300000000.0 -0.0075859590197541885 -0.02015712380878237 0.685981062113178 -0.7098739282435386 0.6859878549049134 -0.7098584491767431 -0.0075765169601584 -0.02016455971324274
93400000000.0 -0.007615265247227891 -0.02015914453785566 0.6853658928580971 -0.7104590533339572 0.6853731222646169 -0.7104437851949504 -0.007606043091432268 -0.020166831741147927
93500000000.0 -0.007644558637592416 -0.0201610994743123 0.6847502063503642 -0.7110435990220889 0.6847578658855656 -0.7110285540947674 -0.007635563004887634 -0.020169031541533006
93600000000.0 -0.0076738388969343685 -0.02016298867003868 0.6841340045419075 -0.711627564590717 0.6841420873753161 -0.711612754960814 -0.007665076219963641 -0.020171158993210363
93700000000.0 -0.007703105732271896 -0.020164812179955582 0.6835172893906177 -0.7122109493673597 0.6835257883534049 -0.7121963869128286 -0.00769458225253743 -0.02017321398340144
93800000000.0 -0.007732358851598832 -0.020166570061980006 0.6829000628590702 -0.7127937527243734 0.6829089704503387 -0.7127794491059506 -0.0077240806151257675 -0.020175196407811468
93900000000.0 -0.007761597963933427 -0.020168262376987125 0.6822823269132445 -0.7133759740790121 0.6822916353065772 -0.7133619407309707 -0.007753570817087271 -0.020177106170705224
94000000000.0 -0.007790822779360788 -0.020169889188769722 0.6816640835212452 -0.7139576128934577 0.6816737845715104 -0.7139438610145584 -0.007783052364826226 -0.02017894318497125
94100000000.0 -0.007820033009076589 -0.02017145056399699 0.6810453346520241 -0.7145386686748095 0.6810554199024291 -0.7145252092194516 -0.007812524761996962 -0.020180707372185375
94200000000.0 -0.007849228365428538 -0.020172946572175006 0.6804260822741022 -0.7151191409750379 0.680436542963496 -0.7151059846446255 -0.007841987509711186 -0.020182398662666315
94300000000.0 -0.007878408561956754 -0.02017437728560488 0.6798063283542979 -0.7156990293909031 0.6798171554247076 -0.7156861866254268 -0.007871440106744895 -0.02018401699552932
94400000000.0 -0.007907573313432097 -0.020175742779340363 0.6791860748564572 -0.7162783335638392 0.6791972589608591 -0.7162658145336792 -0.00790088204974661 -0.020185562318729748
94500000000.0 -0.007936722335894632 -0.0201770431311458 0.6785653237401886 -0.7168570531797979 0.6785768552505032 -0.7168448677777606 -0.007930312833447486 -0.0201870345891073
94600000000.0 -0.007965855346689213 -0.020178278421452898 0.6779440769596063 -0.7174351879690606 0.677955945974913 -0.7174233458026501 -0.007959731950869797 -0.020188433772420303
94700000000.0 -0.007994972064500417 -0.0201794487333174 0.6773223364620772 -0.7180127377060155 0.6773345328170387 -0.718001248089948 -0.007989138893538467 -0.02018975984337685
94800000000.0 -0.00802407220938542 -0.020180554152377173 0.6767001041869808 -0.718589702208894 0.676712617460474 -0.7185785741578595 -0.008018533151691754 -0.020191012785660368
94900000000.0 -0.008053155502807411 -0.020181594766805578 0.6760773820644733 -0.7191660813394798 0.6760902015884154 -0.7191553235611591 -0.008047914214492552 -0.020192192591949234
95000000000.0 -0.00808222166766507 -0.020182570667269806 0.6754541720142632 -0.719741875002778 0.6754672868826282 -0.7197314958911156 -0.008077281570239092 -0.020193299263933564
95100000000.0 -0.008111270428322721 -0.02018348194688537 0.6748304759443993 -0.7203170831466512 0.6748438750224166 -0.7203070907753957 -0.008106634706577869 -0.020194332812322968
95200000000.0 -0.008140301510638133 -0.020184328701172073 0.6742062957500724 -0.7208917057614243 0.6742199676835992 -0.7208821078779357 -0.008135973110713027 -0.02019529325685221
95300000000.0 -0.008169314641989531 -0.02018511102800873 0.6735816333124223 -0.721465742879451 0.6735955665374828 -0.7214565468987826 -0.008165296269618793 -0.020196180626280178
95400000000.0 -0.008198309551300374 -0.02018582902758964 0.6729564904973672 -0.7220391945746504 0.6729706732498503 -0.7220304075739087 -0.008194603670250156 -0.02019699495838452
95500000000.0 -0.008227285969064645 -0.020186482802378742 0.6723308691544433 -0.7226120609620129 0.6723452894799508 -0.7226036896749995 -0.008223894799752097 -0.020197736299949948
95600000000.0 -0.008256243627369127 -0.02018707245706498 0.6717047711156612 -0.7231843421970683 0.671719416879497 -0.7231763930092082 -0.00825316914567089 -0.02019840470675144
95700000000.0 -0.008285182259914654 -0.020187598098517806 0.6710781981943787 -0.7237560384753272 0.6710930570916731 -0.7237485174188872 -0.008282426196161518 -0.02019900024353442
95800000000.0 -0.008314101602037374 -0.020188059835742313 0.670451152184191 -0.7243271500316891 0.6704662117501509 -0.7243200627812897 -0.008311665440196157 -0.020199522983986768
95900000000.0 -0.008343001390726846 -0.02018845777983432 0.6698236348578394 -0.7248976771398191 0.6698388824781126 -0.724891029008244 -0.008340886367771643 -0.020199973010707823
96000000000.0 -0.008371881364644543 -0.0201887920439366 0.6691956479661382 -0.7254676201114971 0.6692110708872899 -0.7254614160457996 -0.008370088470114948 -0.02020035041517175
96100000000.0 -0.008400741264141148 -0.020189062743192505 0.6685671932369233 -0.7260369792959344 0.6685827785770089 -0.7260312238738504 -0.008399271239887802 -0.020200655297685076
96200000000.0 -0.00842958083127083 -0.02018926999470353 0.6679382723740196 -0.726605755079064 0.6679540071332506 -0.7266004525057269 -0.008428434171390489 -0.02020088776734072
96300000000.0 -0.008458399809805497 -0.020189413917485268 0.6673088870562306 -0.727173947882802 0.6673247581277226 -0.7271691019877662 -0.008457576760762718 -0.020201047941966144
96400000000.0 -0.008487197945249759 -0.020189494632421773 0.6666790389363526 -0.7277415581642784 0.6666950331169438 -0.727737172398852 -0.008486698506184668 -0.02020113594806669
96500000000.0 -0.00851597498485131 -0.020189512262223017 0.6660487296402069 -0.7283085864150475 0.6660648336413462 -0.7283046638499353 -0.008515798908075337 -0.020201151920763154
96600000000.0 -0.008544730677611644 -0.02018946693138277 0.6654179607657001 -0.7288750331602638 0.6654341612243853 -0.7288715764835233 -0.008544877469288122 -0.020201096003728113
96700000000.0 -0.008573464774297818 -0.020189358766132752 0.6647867338819087 -0.7294408989578399 0.6648030173716749 -0.729437910473152 -0.008573933695306882 -0.02020096834911192
96800000000.0 -0.008602177027449073 -0.02018918789440274 0.6641550505281857 -0.7300061843975747 0.6641714035701304 -0.7300036660228265 -0.008602967094437359 -0.020200769117469198
96900000000.0 -0.008630867191385479 -0.0201889544457767 0.6635229122132957 -0.7305708901002597 0.6635393212871308 -0.7305688433664451 -0.008631977177997591 -0.020200498477677752
97000000000.0 -0.008659535022215442 -0.02018865855145078 0.6628903204145762 -0.7311350167167603 0.6629067719697024 -0.7311334427671966 -0.008660963460506986 -0.020200156606853165
97100000000.0 -0.008688180277839207 -0.02018830034419279 0.6622572765771244 -0.731698564927077 0.6622737570437146 -0.7316974645169353 -0.008689925459870199 -0.020199743690260397
97200000000.0 -0.008716802717956135 -0.02018787995830005 0.661623782113015 -0.7322615354393831 0.6616402779130979 -0.7322609089355364 -0.008718862697561603 -0.020199259921219626
97300000000.0 -0.008745402104066777 -0.020187397529559288 0.6609898384005422 -0.7328239289890419 0.6610063359590823 -0.7328237763702292 -0.008747774698804897 -0.020198705501007413
97400000000.0 -0.008773978199476062 -0.020186853195206238 0.6603554467834923 -0.733385746337604 0.6603719325394498 -0.7333860671949077 -0.008776660992750668 -0.02019808063875529
97500000000.0 -0.0088025307692953 -0.020186247093886073 0.659720608570448 -0.7339469882717838 0.6597370689878143 -0.7339477818094247 -0.008805521112651787 -0.02019738555134252
97600000000.0 -0.008831059580443388 -0.020185579365614343 0.659085325034118 -0.7345076556024218 0.6591017466129182 -0.7345089206388628 -0.008834354596034828 -0.020196620463285134
97700000000.0 -0.008859564401647493 -0.0201848501517374 0.6584495974107 -0.7350677491634241 0.658465966697952 -0.7350694841327898 -0.00886316098486903 -0.0201957856066208
97800000000.0 -0.008888045003440394 -0.020184059594895765 0.657813426899274 -0.7356272698106882 0.6578297304998937 -0.7356294727644945 -0.008891939825731264 -0.02019488122079114
97900000000.0 -0.008916501158161696 -0.020183207838985865 0.6571768146612267 -0.7361862184210144 0.6571930392488752 -0.7361888870302027 -0.008920690669969969 -0.020193907552518146
98000000000.0 -0.008944932639954445 -0.020182295029122065 0.6565397618197067 -0.7367445958909984 0.6565558941475657 -0.7367477274482807 -0.008949413073862102 -0.020192864855677208
98100000000.0 -0.008973339224760854 -0.020181321311602118 0.6559022694591127 -0.7373024031359128 0.6559182963705841 -0.7373059945584196 -0.008978106598770755 -0.020191753391167654
98200000000.0 -0.009001720690321175 -0.020180286833869753 0.6552643386246128 -0.7378596410885752 0.6552802470639294 -0.737863688920804 -0.00900677081129621 -0.020190573426778716
98300000000.0 -0.009030076816167779 -0.020179191744480324 0.6546259703216986 -0.7384163106982043 0.6546417473444425 -0.738420811115268 -0.009035405283424577 -0.020189325237051765
98400000000.0 -0.009058407383620112 -0.020178036193066275 0.6539871655157689 -0.7389724129292642 0.6540027982992833 -0.7389773617404336 -0.009064009592672905 -0.02018800910313999
98500000000.0 -0.009086712175779686 -0.020176820330302006 0.6533479251317516 -0.7395279487602976 0.6533634009854435 -0.739533341412839 -0.009092583322229786 -0.020186625312663273
98600000000.0 -0.009114990977523356 -0.020175544307872748 0.6527082500537521 -0.7400829191827529 0.6527235564292732 -0.740088750766052 -0.009121126061093844 -0.020185174159562506
98700000000.0 -0.009143243575495851 -0.02017420827843971 0.6520681411247431 -0.740637325199801 0.652083265626044 -0.7406435904497737 -0.00914963740420507 -0.02018365594394713
98800000000.0 -0.009171469758104117 -0.020172812395609176 0.6514275991462803 -0.7411911678251427 0.6514425295395289 -0.741197861128927 -0.009178116952575949 -0.020182070971942974
98900000000.0 -0.009199669315507714 -0.02017135681390091 0.6507866248782596 -0.7417444480818149 0.6508013491016147 -0.7417515634827401 -0.00920656431341644 -0.02018041955553509
99000000000.0 -0.009227842039611049 -0.020169841688717226 0.6501452190387034 -0.7422971670009848 0.6501597252119364 -0.7423046982038108 -0.009234979100254836 -0.020178702012408355
99100000000.0 -0.009255987724053385 -0.020168267176313776 0.6495033823035833 -0.7428493256207483 0.6495176587375427 -0.7428572659971766 -0.009263360933054268 -0.020176918665786327
99200000000.0 -0.009284106164201904 -0.02016663343376912 0.6488611153066742 -0.7434009249849145 0.6488751505125833 -0.7434092675793612 -0.009291709438326835 -0.02017506984426556
99300000000.0 -0.009312197157139343 -0.020164940618956215 0.6482184186394496 -0.7439519661417974 0.648232201338028 -0.7439607036774233 -0.009320024249241192 -0.0201731558816491
99400000000.0 -0.009340260501654688 -0.020163188890515386 0.6475752928510016 -0.7445024501429988 0.6475888119814092 -0.7445115750279947 -0.009348305005726556 -0.02017117711677687
99500000000.0 -0.009368295998232499 -0.020161378407825534 0.6469317384480038 -0.7450523780421965 0.6469449831765944 -0.7450618823763144 -0.009376551354573283 -0.02016913389335396
99600000000.0 -0.00939630344904264 -0.020159509330978976 0.6462877558947042 -0.7456017508939281 0.6463007156235847 -0.7456116264752533 -0.009404762949527115 -0.020167026559777073
99700000000.0 -0.00942428265792813 -0.020157581820753313 0.6456433456129512 -0.7461505697523779 0.6456560099883426 -0.7461608080843424 -0.009432939451380773 -0.02016485546895688
99800000000.0 -0.009452233430393949 -0.020155596038588575 0.6449985079822589 -0.7466988356701684 0.6450108669026448 -0.7467094279687889 -0.00946108052805984 -0.02016262097814309
99900000000.0 -0.009480155573595047 -0.020153552146560734 0.6443532433399022 -0.7472465496971527 0.644365286963965 -0.7472574868984949 -0.009489185854704336 -0.020160323448742308
100000000000.0 -0.009508048896323985 -0.020151450307358737 0.6437075519810457 -0.7477937128792097 0.6437192707353849 -0.7478049856470714 -0.009517255113745838 -0.020157963246137774
100100000000.0 -0.009535913208999734 -0.020149290684259972 0.6430614341589087 -0.7483403262570486 0.6430728187455299 -0.7483519249908536 -0.009545287994979926 -0.020155540739506025
100200000000.0 -0.009563748323653379 -0.020147073441108734 0.642414890084963 -0.7488863908650166 0.6424259314885363 -0.7488983057079117 -0.00957328419563375 -0.020153056301632704
100300000000.0 -0.009591554053916972 -0.02014479874229389 0.6417679199291632 -0.7494319077299153 0.6417786094240435 -0.7494441285770663 -0.009601243420429176 -0.020150510308727203
100400000000.0 -0.009619330215009658 -0.020142466752726768 0.6411205238202099 -0.7499768778698225 0.6411308529772164 -0.7499893943769033 -0.009629165381640431 -0.02014790314023517
100500000000.0 -0.009647076623725789 -0.020140077637820542 0.6404727018458478 -0.7505213022929265 0.640482662538793 -0.7505341038847876 -0.00965704979914853 -0.020145235178650182
100600000000.0 -0.009674793098419872 -0.020137631563471415 0.6398244540531939 -0.7510651819963676 0.6398340384651613 -0.7510782578758852 -0.009684896400489073 -0.020142506809326485
100700000000.0 -0.009702479458995373 -0.020135128696036956 0.6391757804490993 -0.751608517965092 0.6391849810784624 -0.7516218571221838 -0.00971270492089683 -0.02013971842028702
100800000000.0 -0.009730135526890322 -0.020132569202318457 0.638526681000542 -0.7521513111707162 0.638535490666723 -0.7521649023915197 -0.009740475103342982 -0.020136870402034348
100900000000.0 -0.009757761125064098 -0.02012995324954241 0.6378771556350514 -0.7526935625704031 0.6378855674840115 -0.7527073944466098 -0.009768206698573121 -0.020133963147358595
101000000000.0 -0.009785356077984593 -0.020127281005341724 0.6372272042411661 -0.7532352731057554 0.6372352117506265 -0.753249334044089 -0.00979589946513265 -0.020130997051146297
101100000000.0 -0.009812920211613396 -0.0201245526377406 0.6365768266689174 -0.7537764437017177 0.636584423653305 -0.7537907219335509 -0.009823553169393253 -0.020127972510188646
101200000000.0 -0.009840453353393857 -0.020121768315135978 0.635926022730347 -0.7543170752654987 0.6359332033454651 -0.7543315588566044 -0.009851167585572744 -0.020124889922988835
101300000000.0 -0.009867955332237333 -0.02011892820628142 0.6352747922000551 -0.7548571686855048 0.6352815509474672 -0.7548718455459258 -0.009878742495749512 -0.020121749689569035
101400000000.0 -0.009895425978509056 -0.020116032480273185 0.6346231348157737 -0.7553967248302953 0.6346294665469082 -0.7554115827243298 -0.009906277689872484 -0.02011855221127958
101500000000.0 -0.009922865124016182 -0.020113081306533546 0.6339710502789715 -0.7559357445475503 0.6339769501989367 -0.7559507711038462 -0.009933772965766982 -0.02011529789060552
101600000000.0 -0.009950272601992563 -0.02011007485479693 0.6333185382554882 -0.7564742286630604 0.6333240019265958 -0.7564894113848041 -0.009961228129134362 -0.020111987130974847
101700000000.0 -0.00997764824708767 -0.020107013295096135 0.632665598376192 -0.7570121779797334 0.632670621721191 -0.7570275042549326 -0.009988642993548397 -0.02010862033656722
101800000000.0 -0.01000499189535234 -0.020103896797747815 0.6320122302376697 -0.7575495932766227 0.6320168095426826 -0.7575650503884653 -0.010016017380445852 -0.020105197912121956
101900000000.0 -0.010032303384225331 -0.02010072553334056 0.6313584334029382 -0.7580864753079736 0.6313625653201019 -0.758102050445266 -0.010043351119112016 -0.02010172026274884
102000000000.0 -0.010059582552521758 -0.0200974996727214 0.6307042074021862 -0.758622824802293 0.630707888951994 -0.7586385050699594 -0.010070644046663363 -0.020098187793736726
102100000000.0 -0.01008682924041998 -0.020094219386983303 0.6300495517335378 -0.7591586424614407 0.6300527803068814 -0.7591744148910787 -0.010097896008023056 -0.020094600910365027
102200000000.0 -0.010114043289447388 -0.02009088484745545 0.6293944658638431 -0.7596939289597437 0.6293972392237523 -0.7597097805202271 -0.01012510685589331 -0.020090960017717076
102300000000.0 -0.01014122454247082 -0.020087496225688766 0.6287389492294903 -0.7602286849431311 0.6287412655125711 -0.7602446025512546 -0.010152276450722975 -0.020087265520490342
102400000000.0 -0.010168372843681207 -0.020084053693447373 0.6280830012372444 -0.7607629110282965 0.6280848589548139 -0.7607788815594471 -0.010179404660670122 -0.020083517822812723
102500000000.0 -0.010195488038584275 -0.020080557422697033 0.6274266212651048 -0.7612966078018836 0.6274280193040224 -0.7613126181007368 -0.010206491361559615 -0.020079717328057665
102600000000.0 -0.010222569973986581 -0.02007700758559419 0.6267698086631875 -0.761829775819695 0.626770746286381 -0.7618458127109218 -0.010233536436837398 -0.020075864438659666
102700000000.0 -0.010249618497983712 -0.020073404354477686 0.6261125627546273 -0.7623624156059318 0.626113039601316 -0.7623784659049128 -0.0102605397775197 -0.020071959555934455
102800000000.0 -0.010276633459950812 -0.020069747901857966 0.6254548828364992 -0.7628945276524516 0.6254548989221123 -0.7629105781759843 -0.010287501282137405 -0.020068003079897864
102900000000.0 -0.010303614710527745 -0.020066038400408166 0.6247967681807625 -0.7634261124180622 0.624796323896555 -0.7634421499950588 -0.010314420856674656 -0.020063995409087987
103000000000.0 -0.010330562101612073 -0.020062276022954614 0.6241382180352194 -0.7639571703278355 0.6241373141475842 -0.7639731818099977 -0.010341298414508586 -0.020059936940388042
103100000000.0 -0.010357475486344393 -0.020058460942468943 0.6234792316244967 -0.7644877017724532 0.6234778692739747 -0.7645036740449169 -0.010368133876337022 -0.02005582806885264
103200000000.0 -0.010384354719099098 -0.02005459333205893 0.6228198081510394 -0.7650177071075797 0.6228179888510297 -0.7650336270995232 -0.010394927170107987 -0.020051669187535
103300000000.0 -0.01041119965547417 -0.02005067336496082 0.622159946796125 -0.7655471866532618 0.6221576724312933 -0.765563041348466 -0.010421678230941723 -0.020047460687316637
103400000000.0 -0.01043801015227981 -0.02004670121453062 0.621499646720891 -0.7660761406933632 0.6214969195452842 -0.7660919171407179 -0.010448387001050831 -0.020043202956738983
103500000000.0 -0.0104647860675289 -0.02004267705423739 0.6208389070673777 -0.7666045694750196 0.6208357297022388 -0.7666202547989661 -0.010475053429653644 -0.020038896381838624
103600000000.0 -0.01049152726042743 -0.02003860105765426 0.6201777269595853 -0.7671324732081337 0.620174102390876 -0.7671480546190336 -0.010501677472887315 -0.020034541345982437
103700000000.0 -0.010518233591363913 -0.020034473398452216 0.6195161055045432 -0.7676598520648915 0.6195120370801753 -0.767675316869321 -0.010528259093712819 -0.020030138229708457
103800000000.0 -0.010544904921899547 -0.020030294250392155 0.6188540417933924 -0.768186706179317 0.6188495332201687 -0.7682020417902663 -0.010554798261818129 -0.020025687410566692
103900000000.0 -0.010571541114760791 -0.020026063787317794 0.6181915349024788 -0.7687130356468501 0.6181865902427497 -0.7687282295938329 -0.01058129495351954 -0.020021189262964006
104000000000.0 -0.01059814203382764 -0.020021782183149317 0.6175285838944563 -0.7692388405239639 0.6175232075624905 -0.7692538804630178 -0.010607749151655159 -0.020016644158012076
104100000000.0 -0.010624707544127499 -0.020017449611875928 0.6168651878194006 -0.7697641208278043 0.6168593845774791 -0.7697789945513835 -0.010634160845477416 -0.020012052463377217
104200000000.0 -0.010651237511824257 -0.020013066247548818 0.6162013457159309 -0.7702888765358715 0.6161951206701606 -0.7703035719826161 -0.010660530030542707 -0.020007414543133314
104300000000.0 -0.010677731804210338 -0.020008632264275402 0.6155370566123395 -0.7708131075857236 0.6155304152081968 -0.7708276128501027 -0.01068685670859448 -0.020002730757619394
104400000000.0 -0.010704190289699756 -0.020004147836212356 0.614872319527727 -0.7713368138747182 0.6148652675453318 -0.7713511172165405 -0.01071314088744531 -0.019998001463298637
104500000000.0 -0.010730612837817987 -0.019999613137558134 0.6142071334731483 -0.7718599952597843 0.6141996770222699 -0.7718740851135619 -0.010739382580856065 -0.019993227012620247
104600000000.0 -0.010756999319195163 -0.019995028342547953 0.6135414974527539 -0.772382651557227 0.6135336429675616 -0.7723965165413924 -0.010765581808409036 -0.019988407753887303
104700000000.0 -0.01078334960555824 -0.019990393625446422 0.6128754104649486 -0.7729047825425642 0.6128671646985001 -0.7729184114685287 -0.01079173859538163 -0.01998354403112499
104800000000.0 -0.01080966356972353 -0.01998570916054111 0.6122088715035401 -0.7734263879503952 0.6122002415220225 -0.7734397698314441 -0.010817852972613931 -0.019978636183954054
104900000000.0 -0.010835941085588533 -0.01998097512213662 0.6115418795589003 -0.7739474674743033 0.611532872735622 -0.7739605915343187 -0.010843924976374262 -0.01997368454746748
105000000000.0 -0.010862182028125014 -0.01997619168454747 0.610874433619121 -0.7744680207667901 0.6108650576282628 -0.7744808764487984 -0.010869954648222347 -0.019968689452110066
105100000000.0 -0.010888386273373319 -0.019971359022092208 0.6102065326711735 -0.7749880474392409 0.610196795481304 -0.7750006244137723 -0.010895942034870595 -0.019963651223562924
105200000000.0 -0.010914553698432321 -0.019966477309086666 0.609538175702069 -0.7755075470619267 0.6095280855694255 -0.7755198352351859 -0.010921887188038973 -0.01995857018263055
105300000000.0 -0.01094068418145555 -0.019961546719837082 0.6088693617000126 -0.7760265191640336 0.6088589271615612 -0.7760385086858722 -0.010947790164311962 -0.019953446645131972
105400000000.0 -0.010966777601642972 -0.01995656742863416 0.6082000896555605 -0.7765449632337281 0.6081893195218329 -0.7765566445054154 -0.010973651024989936 -0.019948280921796555
105500000000.0 -0.010992833839234148 -0.01995153960974611 0.6075303585627706 -0.7770628787182531 0.6075192619104894 -0.7770742424000331 -0.010999469835939206 -0.019943073318162693
105600000000.0 -0.01101885277550294 -0.019946463437411792 0.6068601674203502 -0.7775802650240573 0.6068487535848449 -0.7775913020424953 -0.011025246667439276 -0.01993782413448079
105700000000.0 -0.011044834292749833 -0.019941339085834536 0.606189515232801 -0.778097121516955 0.6061777938002224 -0.7781078230720584 -0.011050981594028952 -0.01993253366562094
105800000000.0 -0.011070778274295869 -0.019936166729174244 0.6055184010115523 -0.7786134475223191 0.6055063818108941 -0.7786238050944356 -0.011076674694349264 -0.01992720220098301
105900000000.0 -0.011096684604477096 -0.01993094654154146 0.6048468237760937 -0.7791292423253048 0.6048345168710234 -0.7791392476817858 -0.011102326050984384 -0.01992183002441303
106000000000.0 -0.011122553168636458 -0.019925678696989496 0.6041747825550978 -0.779644505171105 0.6041621982356071 -0.7796541503727336 -0.011127935750301642 -0.01991641741412162
106100000000.0 -0.011148383853120536 -0.019920363369508372 0.6035022763875336 -0.7801592352652381 0.6034894251614126 -0.7801685126724145 -0.011153503882289377 -0.019910964642608806
106200000000.0 -0.011174176545269955 -0.019915000733015838 0.6028293043237706 -0.7806734317738628 0.6028161969079162 -0.7806823340525438 -0.011179030540391866 -0.019905471976590147
106300000000.0 -0.011199931133416371 -0.01990959096135178 0.6021558654266759 -0.7811870938241287 0.6021425127382373 -0.781195613951515 -0.011204515821344688 -0.0198999396769307
106400000000.0 -0.011225647506873451 -0.01990413422827009 0.6014819587726957 -0.781700220504554 0.6014683719200672 -0.7817083517745229 -0.011229959825007144 -0.019894367998580728
106500000000.0 -0.011251325555932607 -0.019898630707430226 0.6008075834529293 -0.7822128108654337 0.6007937737265967 -0.7822205468937116 -0.011255362654195154 -0.01988875719051569
106600000000.0 -0.011276965171856232 -0.019893080572390493 0.6001327385741863 -0.7827248639192762 0.6001187174374338 -0.7827321986483472 -0.01128072441450919 -0.019883107495682242
106700000000.0 -0.01130256624687124 -0.01988748399659983 0.5994574232600326 -0.7832363786412715 0.5994432023395209 -0.7832433063450214 -0.011306045214165592 -0.019877419150947793
106800000000.0 -0.011328128674162875 -0.019881841153389816 0.5987816366518243 -0.7837473539697872 0.598767227728041 -0.7837538692578724 -0.01133132516382438 -0.01987169238705395
106900000000.0 -0.011353652347868523 -0.019876152215966596 0.5981053779097207 -0.7842577888068906 0.5980907929073187 -0.7842638866288376 -0.011356564376416241 -0.01986592742857546
107000000000.0 -0.011379137163071042 -0.019870417357402876 0.5974286462136887 -0.7847676820189033 0.5974138971917134 -0.7847733576679274 -0.011381762966968504 -0.0198601244938825
107100000000.0 -0.011404583015791817 -0.019864636750628467 0.5967514407644828 -0.7852770324369779 0.5967365399065012 -0.7852822815535254 -0.011406921052432585 -0.01985428379510799
107200000000.0 -0.01142998980298501 -0.019858810568423382 0.5960737607846152 -0.7857858388577056 0.5960587203887519 -0.7857906574327107 -0.011432038751507308 -0.019848405538119774
107300000000.0 -0.01145535742253003 -0.019852938983408196 0.5953956055193028 -0.7862941000437487 0.5953804379881923 -0.7862984844216082 -0.011457116184465637 -0.01984248992249665
107400000000.0 -0.011480685773225108 -0.01984702216803482 0.5947169742373978 -0.7868018147244978 0.5947016920680593 -0.7868057616057561 -0.011482153472978129 -0.019836537141508473
107500000000.0 -0.01150597475477975 -0.019841060294579393 0.5940378662322965 -0.787308981596757 0.5940224820059432 -0.7873124880405058 -0.011507150739936044 -0.01983054738210259
107600000000.0 -0.011531224267807854 -0.01983505353513128 0.5933582808228327 -0.7878155993254512 0.5933428071946194 -0.7878186627514354 -0.011532108109278209 -0.019824520824892538
107700000000.0 -0.011556434213820467 -0.01982900206158524 0.5926782173541442 -0.7883216665443596 0.5926626670428633 -0.7883242847347925 -0.011557025705812723 -0.01981845764415256
107800000000.0 -0.011581604495217085 -0.019822906045631732 0.5919976751985221 -0.788827181856872 0.5919820609762577 -0.7888293529579572 -0.011581903655041524 -0.019812358007816333
107900000000.0 -0.011606735015279783 -0.019816765658747494 0.5913166537562362 -0.7893321438367644 0.5913009884379825 -0.7893338663599251 -0.011606742082986442 -0.019806222077480087
108000000000.0 -0.011631825678163146 -0.019810581072186542 0.5906351524563379 -0.7898365510290056 0.5906194488895912 -0.7898378238518154 -0.011631541116011375 -0.019800050008410185
108100000000.0 -0.011656876388887452 -0.019804352456970566 0.5899531707574406 -0.7903404019505755 0.5899374418117725 -0.7903412243173971 -0.011656300880649246 -0.019793841949555562
108200000000.0 -0.011681887053329712 -0.019798079983878662 0.5892707081484757 -0.7908436950913119 0.5892549667050974 -0.7908440666136384 -0.011681021503427298 -0.019787598043563427
108300000000.0 -0.011706857578215319 -0.01979176382343859 0.5885877641494223 -0.7913464289147718 0.5885720230907465 -0.7913463495712726 -0.011705703110692996 -0.01978131842680094
108400000000.0 -0.01173178787110749 -0.019785404145916494 0.5879043383120163 -0.7918486018591177 0.5878886105112263 -0.7918480719953888 -0.011730345828441199 -0.01977500322938035
108500000000.0 -0.011756677840400234 -0.019779001121307364 0.5872204302204287 -0.7923502123380176 0.5872047285310615 -0.7923492326660361 -0.011754949782142846 -0.019768652575188804
108600000000.0 -0.011781527395307485 -0.01977255491932462 0.5865360394919215 -0.792851258741566 0.5865203767374768 -0.7928498303388516 -0.011779515096573106 -0.01976226658192172
108700000000.0 -0.011806336445853726 -0.01976606570939141 0.5858511657774765 -0.7933517394372221 0.5858355547410558 -0.793349863745703 -0.011804041895641496 -0.019755845361122425
108800000000.0 -0.011831104902862564 -0.019759533660629727 0.5851658087623962 -0.7938516527707649 0.5851502621763803 -0.7938493315953512 -0.011828530302223493 -0.01974938901822384
108900000000.0 -0.011855832677948217 -0.01975295894185039 0.5844799681668778 -0.7943509970672599 0.5844644987026565 -0.7943482325741292 -0.011852980437991894 -0.01974289765259553
109000000000.0 -0.011880519683503399 -0.019746341721543933 0.5837936437465593 -0.7948497706320483 0.5837782640043132 -0.7948465653466363 -0.011877392423252899 -0.01973637135759512
109100000000.0 -0.01190516583268837 -0.019739682167869928 0.5831068352930378 -0.7953479717517439 0.5830915577915885 -0.795344328556451 -0.011901766376779109 -0.019729810220623523
109200000000.0 -0.01192977103941968 -0.019732980448647915 0.582419542634359 -0.7958455986952467 0.5824043798010887 -0.7958415208268572 -0.011926102415648286 -0.019723214323184635
109300000000.0 -0.011954335218358161 -0.019726236731346488 0.5817317656354773 -0.7963426497147673 0.5817167297963312 -0.7963381407615863 -0.011950400655080956 -0.019716583740948077
109400000000.0 -0.01197885828489605 -0.019719451183074218 0.5810435041986872 -0.7968391230468657 0.5810286075682635 -0.7968341869455728 -0.011974661208281386 -0.019709918543817866
109500000000.0 -0.01200334015514614 -0.01971262397056985 0.5803547582640259 -0.7973350169134964 0.5803400129357622 -0.7973296579457241 -0.011998884186279573 -0.019703218796002994
109600000000.0 -0.012027780745926628 -0.019705755260192668 0.5796655278096439 -0.7978303295230706 0.5796509457461085 -0.7978245523117038 -0.012023069697777054 -0.01969648455609427
109700000000.0 -0.012052179974749602 -0.01969884521791286 0.5789758128521487 -0.7983250590715213 0.5789614058754432 -0.7983188685767263 -0.01204721784899161 -0.019689715877142258
109800000000.0 -0.012076537759805757 -0.019691894009301335 0.5782856134469141 -0.7988192037433779 0.5782713932291959 -0.7988126052583635 -0.01207132874350679 -0.019682912806741365
109900000000.0 -0.01210085401995138 -0.01968490179952208 0.5775949296883638 -0.7993127617128536 0.5775809077424948 -0.799305760859364 -0.012095402482123237 -0.01967607538711716
110000000000.0 -0.012125128674693375 -0.019677868753321035 0.5769037617102204 -0.7998057311449323 0.5768899493805523 -0.7997983338684809 -0.012119439162710985 -0.019669203655216103
110100000000.0 -0.012149361644173892 -0.019670795035018847 0.576212109685725 -0.8002981101964648 0.5761985181390236 -0.8002903227613096 -0.012143438880067142 -0.019662297642801668
110200000000.0 -0.012173552849155712 -0.019663680808500467 0.5755199738278268 -0.800789897017273 0.575506614044347 -0.8007817260011371 -0.012167401725771678 -0.019655357376550282
110300000000.0 -0.012197702211006835 -0.019656526237207546 0.5748273543893401 -0.8012810897512499 0.574814237154057 -0.801272542039795 -0.012191327788051425 -0.01964838287815431
110400000000.0 -0.012221809651681776 -0.01964933148412985 0.5741342516630703 -0.8017716865374733 0.5741213875570725 -0.8017627693185284 -0.012215217151641205 -0.019641374164427253
110500000000.0 -0.012245875093708258 -0.019642096711796474 0.5734406659819109 -0.8022616855113126 0.573428065373963 -0.8022524062688607 -0.01223906989765252 -0.01963433124741061
110600000000.0 -0.012269898460169104 -0.019634822082268234 0.5727465977189049 -0.802751084805543 0.5727342707571881 -0.8027414513134764 -0.012262886103441308 -0.019627254134486866
110700000000.0 -0.01229387967468213 -0.019627507757130114 0.5720520472872801 -0.8032398825514586 0.5720400038913143 -0.8032299028671015 -0.012286665842481108 -0.019620142828494253
110800000000.0 -0.01231781866138711 -0.019620153897483367 0.5713570151404485 -0.8037280768799822 0.5713452649932035 -0.8037177593373914 -0.01231040918423981 -0.019612997327844158
110900000000.0 -0.012341715344923765 -0.019612760663939716 0.570661501771978 -0.8042156659227808 0.5706500543121822 -0.8042050191258261 -0.012334116194055531 -0.0196058176266435
111000000000.0 -0.01236556965041411 -0.019605328216612095 0.5699655077155312 -0.8047026478133715 0.5699543721301785 -0.804691680628603 -0.012357786933021054 -0.019598603714817597
111100000000.0 -0.012389381503444678 -0.019597856715110447 0.5692690335447723 -0.8051890206882297 0.569258218761841 -0.8051777422375401 -0.012381421457867532 -0.019591355578237657
111200000000.0 -0.012413150830044444 -0.01959034631853479 0.5685720798732465 -0.8056747826878932 0.5685615945546247 -0.8056632023409731 -0.012405019820853253 -0.019584073198851366
111300000000.0 -0.012436877556668006 -0.01958279718546966 0.5678746473542239 -0.8061599319580566 0.5678644998888615 -0.8061480593246627 -0.012428582069655941 -0.01957675655481482
111400000000.0 -0.012460561610172404 -0.019575209473977645 0.5671767366805169 -0.8066444666506669 0.5671669351777948 -0.8066323115726944 -0.012452108247267344 -0.019569405620627898
111500000000.0 -0.012484202917799123 -0.01956758334159648 0.5664783485842639 -0.8071283849250097 0.5664689008675966 -0.8071159574683862 -0.012475598391893074 -0.01956202036727259
111600000000.0 -0.012507801407150769 -0.0195599189453332 0.5657794838366855 -0.8076116849487873 0.5657703974373574 -0.8075989953951899 -0.012499052536853652 -0.019554600762352787
111700000000.0 -0.012531357006170724 -0.01955221644165979 0.5650801432478086 -0.8080943648991904 0.5650714253990473 -0.8080814237375933 -0.012522470710491852 -0.01954714677023724
111800000000.0 -0.01255486964312175 -0.019544475986511035 0.5643803276661625 -0.8085764229639614 0.5643719852974568 -0.808563240882021 -0.012545852936083447 -0.01953965835220566
111900000000.0 -0.012578339246563241 -0.01953669773528061 0.5636800379784417 -0.8090578573424448 0.5636720777101096 -0.809044445217732 -0.01256919923174771 -0.01953213546659397
112000000000.0 -0.012601765745328185 -0.019528881842817505 0.5629792751091461 -0.8095386662466314 0.562971703247153 -0.8095250351377132 -0.012592509610368409 -0.01952457806894523
112100000000.0 -0.012625149068502319 -0.01952102846342592 0.5622780400201851 -0.8100188479021888 0.5622708625512187 -0.8100050090395703 -0.012615784079513302 -0.01951698611216023
112200000000.0 -0.012648489145398211 -0.01951313775086272 0.5615763337104586 -0.8104984005494785 0.5615695562972641 -0.8104843653264114 -0.012639022641359066 -0.01950935954665184
112300000000.0 -0.012671785905533937 -0.019505209858336044 0.5608741572154069 -0.8109773224445652 0.5608677851923872 -0.8109631024077303 -0.012662225292621964 -0.019501698320498268
112400000000.0 -0.012695039278608948 -0.019497244938505957 0.5601715116065333 -0.8114556118602047 0.560165549975615 -0.8114412187002757 -0.01268539202449026 -0.019494002379601732
112500000000.0 -0.012718249194478939 -0.019489243143484096 0.5594683979909008 -0.811933267086825 0.5594628514176699 -0.811918712628922 -0.01270852282256112 -0.019486271667845622
112600000000.0 -0.012741415583132139 -0.01948120462483401 0.558764817510599 -0.8124102864334882 0.5587596903207124 -0.8123955826275263 -0.012731617666782382 -0.019478506127255005
112700000000.0 -0.012764538374665667 -0.019473129533574152 0.5580607713421877 -0.8128866682288354 0.5580560675180591 -0.8128718271397819 -0.012754676531399035 -0.019470705698157658
112800000000.0 -0.012787617499259173 -0.019465018020177974 0.5573562606961121 -0.813362410822019 0.5573519838738763 -0.8133474446200594 -0.012777699384901593 -0.019462870319346983
112900000000.0 -0.012810652887150038 -0.019456870234578597 0.5566512868160935 -0.8138375125836149 0.5566474402828522 -0.8138224335342393 -0.012800686189979654 -0.019454999928245623
113000000000.0 -0.01283364446860922 -0.01944868632617105 0.5559458509784951 -0.8143119719065147 0.5559424376698461 -0.8142967923605366 -0.012823636903481567 -0.019447094461070347
113100000000.0 -0.012856592173914501 -0.019440466443816324 0.5552399544916616 -0.8147857872068052 0.555236976989512 -0.8147705195903138 -0.012846551476375234 -0.019439153852997607
113200000000.0 -0.012879495933324658 -0.019432210735847322 0.5545335986952394 -0.8152589569246215 0.5545310592259052 -0.8152436137288781 -0.012869429853715416 -0.019431178038331283
113300000000.0 -0.012902355677055671 -0.019423919350073374 0.5538267849594651 -0.8157314795249849 0.5538246853920593 -0.8157160732962747 -0.012892271974614946 -0.019423166950669576
113400000000.0 -0.012925171335251931 -0.01941559243378656 0.553119514684442 -0.8162033534986189 0.553117856529551 -0.8161878968280624 -0.012915077772218161 -0.019415120523072024
113500000000.0 -0.012947942837962126 -0.019407230133769493 0.5524117892993841 -0.8166745773627417 0.552410573708035 -0.816659082876075 -0.012937847173682192 -0.019407038688230824
113600000000.0 -0.012970670115112218 -0.01939883259630222 0.5517036102618463 -0.81714514966184 0.5517028380247634 -0.8171296300091742 -0.012960580100159172 -0.019398921378637916
113700000000.0 -0.012993353096479877 -0.019390399967171394 0.5509949790569288 -0.817615068968418 0.5509946506040813 -0.8175995368139807 -0.012983276466786509 -0.01939076852675531
113800000000.0 -0.013015991711666846 -0.019381932391679662 0.5502858971964631 -0.8180843338837247 0.5502860125969058 -0.8180688018955995 -0.01300593618267609 -0.019382580065184122
113900000000.0 -0.01303858589007403 -0.019373430014655267 0.5495763662181782 -0.818552943038455 0.5495769251801812 -0.8185374238783223 -0.01302855915091376 -0.019374355926836173
114000000000.0 -0.01306113556087416 -0.019364892980462994 0.548866387684849 -0.819020895093431 0.54886738955632 -0.8190054014063175 -0.013051145268559374 -0.0193660960451017
114100000000.0 -0.013083640652985482 -0.019356321433016226 0.5481559631834237 -0.8194881887402551 0.5481574069526193 -0.8194727331443026 -0.013073694426651154 -0.01935780035402033
114200000000.0 -0.01310610109504635 -0.019347715515790325 0.5474450943241366 -0.8199548227019376 0.5474469786206647 -0.8199394177781999 -0.013096206510218008 -0.019349468788451056
114300000000.0 -0.013128516815387313 -0.01933907537183353 0.5467337827396009 -0.8204207957335026 0.5467361058357123 -0.8204054540157771 -0.01311868139829078 -0.019341101284239597
114400000000.0 -0.013150887742006876 -0.019330401143784343 0.5460220300838886 -0.8208861066225621 0.5460247898960547 -0.8208708405872643 -0.013141118963921847 -0.01933269777838968
114500000000.0 -0.013173213802543082 -0.01932169297388364 0.5453098380315943 -0.8213507541898694 0.5453130321223713 -0.8213355762459582 -0.013163519074207866 -0.01932425820922973
114600000000.0 -0.013195494924249953 -0.019312951003993 0.544597208276883 -0.8218147372898421 0.5446008338570615 -0.821799659768805 -0.013185881590316903 -0.019315782516580747
114700000000.0 -0.013217731033970089 -0.01930417537560953 0.5438841425325243 -0.8222780548110569 0.5438881964635625 -0.822263089956964 -0.013208206367518635 -0.01930727064192391
114800000000.0 -0.013239922058109421 -0.01929536622988541 0.5431706425289148 -0.8227407056767194 0.5431751213256504 -0.8227258656363517 -0.01323049325522057 -0.019298722528565702
114900000000.0 -0.0132620679226122 -0.01928652370764367 0.5424567100130894 -0.8232026888451064 0.5424616098467308 -0.8231879856581672 -0.013252742097007128 -0.01929013812180359
115000000000.0 -0.01328416855293555 -0.019277647949400574 0.5417423467477159 -0.8236640033099741 0.5417476634491093 -0.8236494488993931 -0.013274952730683803 -0.019281517369090007
115100000000.0 -0.013306223874023939 -0.01926873909538364 0.5410275545100858 -0.8241246481009474 0.5410332835732549 -0.8241102542632811 -0.01329712498832568 -0.019272860220194993
115200000000.0 -0.013328233810286035 -0.019259797285553368 0.5403123350910902 -0.8245846222838703 0.5403184716770464 -0.8245704006798121 -0.013319258696328109 -0.019264166627367737
115300000000.0 -0.013350198285568576 -0.01925082265962551 0.5395966902941897 -0.8250439249611323 0.539603229235009 -0.8250298871061348 -0.013341353675463833 -0.019255436545497814
115400000000.0 -0.01337211722313457 -0.019241815357093083 0.5388806219343732 -0.8255025552719661 0.5388875577375363 -0.8254887125269856 -0.013363409740943832 -0.019246669932272333
115500000000.0 -0.013393990545637611 -0.019232775517250538 0.5381641318371136 -0.8259605123927126 0.5381714586901073 -0.8259468759550858 -0.01338542670247963 -0.01923786674833388
115600000000.0 -0.013415818175099873 -0.01922370327921809 0.5374472218373115 -0.8264177955370601 0.5374549336124838 -0.8264043764315101 -0.0134074043643538 -0.019229026957436134
115700000000.0 -0.013437600032889345 -0.01921459878196705 0.5367298937782398 -0.826874403956248 0.5367379840379077 -0.8268612130260418 -0.01342934252549042 -0.01922015052659804
115800000000.0 -0.01345933603969703 -0.01920546216434621 0.5360121495104773 -0.8273303369392467 0.5360206115122841 -0.8273173848374978 -0.013451240979531891 -0.019211237426253844
115900000000.0 -0.013481026115516038 -0.01919629356510835 0.5352939908908413 -0.8277855938129025 0.5353028175933556 -0.8277728909940341 -0.013473099514919044 -0.01920228763040498
116000000000.0 -0.013502670179619043 -0.019187093122938544 0.5345754197813182 -0.8282401739420545 0.5345846038498709 -0.8282277306534257 -0.013494917914973691 -0.01919330111676718
116100000000.0 -0.01352426815053892 -0.01917786097648266 0.5338564380479903 -0.8286940767296217 0.5338659718607471 -0.8286819030033253 -0.013516695957987926 -0.019184277866915105
116200000000.0 -0.013545819946047375 -0.019168597264377165 0.5331370475599586 -0.8291473016166567 0.5331469232142215 -0.8291354072614947 -0.013538433417312708 -0.019175217866427247
116300000000.0 -0.01356732548313645 -0.0191593021252784 0.5324172501882727 -0.8295998480823735 0.5324274595070029 -0.8295882426760158 -0.013560130061454652 -0.019166121105025885
116400000000.0 -0.013588784677998404 -0.01914997569789594 0.5316970478048515 -0.8300517156441415 0.5317075823434136 -0.830040408525476 -0.013581785654172882 -0.019156987576716463
116500000000.0 -0.013610197446008922 -0.019140618121021583 0.5309764422814126 -0.8305029038574497 0.5309872933345297 -0.830491904119127 -0.013603399954581806 -0.019147817279923214
116600000000.0 -0.013631563701708135 -0.019131229533564022 0.5302554354883998 -0.8309534123158429 0.5302665940973165 -0.8309427287970246 -0.013624972717255292 -0.01913861021762198
116700000000.0 -0.013652883358784777 -0.019121810074582052 0.5295340292939149 -0.831403240650824 0.5295454862537603 -0.8313928819301389 -0.013646503692336096 -0.019129366397472595
116800000000.0 -0.013674156330059337 -0.019112359883318174 0.5288122255626521 -0.8318523885317307 0.5288239714300004 -0.8318423629204427 -0.013667992625646181 -0.01912008583194543
116900000000.0 -0.013695382527468911 -0.01910287909923347 0.5280900261548391 -0.8323008556655775 0.5281020512554558 -0.8322911712009744 -0.013689439258803638 -0.01911076853844665
117000000000.0 -0.013716561862052728 -0.0190933678620444 0.5273674329251798 -0.832748641796872 0.5273797273619557 -0.8327393062358783 -0.013710843329338893 -0.01910141453944177
117100000000.0 -0.013737694243938657 -0.019083826311757552 0.5266444477218091 -0.8331957467073987 0.5266570013828646 -0.8331867675204161 -0.013732204570817195 -0.019092023862572916
117200000000.0 -0.013758779582329442 -0.019074254588707824 0.5259210723852477 -0.8336421702159766 0.5259338749522103 -0.8336335545809591 -0.013753522712962717 -0.019082596540776434
117300000000.0 -0.013779817785491632 -0.01906465283359541 0.5251973087473699 -0.8340879121781823 0.5252103497038156 -0.8340796669749511 -0.013774797481784408 -0.019073132612394548
117400000000.0 -0.013800808760743292 -0.01905502118752508 0.5244731586303801 -0.8345329724860522 0.5244864272704262 -0.8345251042908509 -0.013796028599707235 -0.019063632121286672
117500000000.0 -0.013821752414445733 -0.019045359792043692 0.5237486238457942 -0.8349773510677474 0.5237621092828457 -0.8349698661480482 -0.013817215785704356 -0.019054095116933366
117600000000.0 -0.013842648651991652 -0.019035668789181445 0.5230237061934365 -0.8354210478871947 0.5230373973690722 -0.8354139521967533 -0.013838358755432377 -0.019044521654541825
117700000000.0 -0.013863497377798956 -0.019025948321490505 0.5222984074604441 -0.8358640629437021 0.5223122931534387 -0.8358573621178694 -0.01385945722136867 -0.019034911795144157
117800000000.0 -0.013884298495302322 -0.019016198532086612 0.521572729420286 -0.8363063962715396 0.5215867982557575 -0.8363000956228315 -0.013880510892952565 -0.019025265605693006
117900000000.0 -0.013905051906946896 -0.019006419564690104 0.5208466738317926 -0.8367480479395006 0.5208609142904708 -0.8367421524534298 -0.013901519476728501 -0.019015583159155535
118000000000.0 -0.013925757514184157 -0.018996611563667762 0.5201202424381981 -0.8371890180504281 0.5201346428658062 -0.8371835323816037 -0.013922482676488821 -0.019005864534600462
118100000000.0 -0.013946415217466323 -0.01898677467407475 0.5193934369662003 -0.8376293067407218 0.519407985582941 -0.8376242352092155 -0.013943400193423789 -0.018996109817284786
118200000000.0 -0.013967024916243822 -0.018976909041696972 0.5186662591250337 -0.8380689141798167 0.5186809440351697 -0.8380642607677992 -0.013964271726269002 -0.018986319098734224
118300000000.0 -0.013987586508963291 -0.01896701481309576 0.5179387106055547 -0.8385078405696311 0.5179535198070838 -0.8385036089182871 -0.01398509697145734 -0.01897649247682137
118400000000.0 -0.014008099893066244 -0.018957092135649892 0.5172107930793495 -0.8389460861439966 0.5172257144737559 -0.8389422795507112 -0.014005875623272655 -0.018966630055839453
118500000000.0 -0.014028564964990506 -0.018947141157599164 0.5164825081978522 -0.8393836511680594 0.5164975295999359 -0.8393802725838869 -0.014026607374004275 -0.0189567319465722
118600000000.0 -0.014048981620170226 -0.01893716202809049 0.5157538575914882 -0.8398205359376577 0.5157689667392562 -0.8398175879650679 -0.014047291914104138 -0.018946798266359616
118700000000.0 -0.014069349753038671 -0.018927154897220768 0.5150248428688278 -0.8402567407786775 0.5150400274334459 -0.8402542256695853 -0.014067928932345394 -0.01893682913916041
118800000000.0 -0.014089669257032613 -0.018917119916082123 0.5142954656157649 -0.8406922660463806 0.5143107132115569 -0.8406901857004591 -0.014088518115981497 -0.018926824695610262
118900000000.0 -0.014109940024597428 -0.018907057236807613 0.5135657273947127 -0.8411271121247149 0.5135810255892039 -0.8411254680879942 -0.014109059150908742 -0.018916785073074874
119000000000.0 -0.014130161947191886 -0.018896967012615607 0.5128356297438198 -0.8415612794256003 0.5128509660678117 -0.8415600728893491 -0.014129551721828976 -0.018906710415700734
119100000000.0 -0.014150334915296806 -0.018886849397856207 0.5121051741762079 -0.8419947683881926 0.5121205361338779 -0.84199400018809 -0.014149995512411955 -0.018896600874460864
119200000000.0 -0.014170458818423442 -0.01887670454805592 0.5113743621792303 -0.8424275794781286 0.5113897372582527 -0.8424272500937208 -0.014170390205462204 -0.018886456607196
119300000000.0 -0.014190533545123651 -0.01886653261996438 0.5106431952137519 -0.8428597131867483 0.5106585708954217 -0.842859822741193 -0.014190735483084256 -0.01887627777865305
119400000000.0 -0.014210558983000124 -0.018856333771599454 0.5099116747134537 -0.8432911700302993 0.5099270384828171 -0.8432917182903966 -0.01421103102684941 -0.018866064560516628
119500000000.0 -0.014230535018719868 -0.01884610816229347 0.5091798020841577 -0.843721950549122 0.5091951414401324 -0.8437229369256354 -0.01423127651796352 -0.018855817131440796
119600000000.0 -0.014250461538027365 -0.01883585595273893 0.5084475787031782 -0.8441520553068166 0.5084628811686587 -0.8441534788550771 -0.014251471637435736 -0.01884553567707111
119700000000.0 -0.014270338425759936 -0.018825577305034497 0.5077150059186941 -0.8445814848893907 0.5077302590506334 -0.8445833443101899 -0.014271616066247305 -0.018835220390067912
119800000000.0 -0.014290165565863822 -0.018815272382731524 0.5069820850491499 -0.845010239904393 0.5069972764486106 -0.8450125335451603 -0.014291709485520738 -0.01882487147012071
119900000000.0 -0.014309942841412158 -0.018804941350878245 0.5062488173826757 -0.8454383209800284 0.5062639347048421 -0.8454410468362937 -0.014311751576689957 -0.018814489123961334
120000000000.0 -0.01432967013462358 -0.01879458437606658 0.5055152041765401 -0.8458657287642586 0.5055302351406791 -0.8458688844813953 -0.014331742021670176 -0.01880407356537186
120100000000.0 -0.014349347326883151 -0.01878420162647737 0.5047812466566208 -0.8462924639238872 0.504796179055992 -0.84629604679914 -0.014351680503028043 -0.01879362501518745
120200000000.0 -0.014368974298762912 -0.01877379327192517 0.5040469460169105 -0.8467185271436318 0.504061767728609 -0.8467225341284222 -0.014371566704152251 -0.018783143701296426
120300000000.0 -0.014388550930045586 -0.01876335948390394 0.5033123034190398 -0.847143919125183 0.5033270024137694 -0.8471483468276927 -0.014391400309422786 -0.01877262985863534
120400000000.0 -0.014408077099749438 -0.01875290043563044 0.5025773199918356 -0.8475686405862481 0.5025918843436022 -0.8475734852742787 -0.014411181004381978 -0.018762083729178695
120500000000.0 -0.014427552686151882 -0.018742416302090833 0.5018419968309015 -0.8479926922595868 0.5018564147266195 -0.8479979498636915 -0.014430908475903177 -0.018751505561927204
120600000000.0 -0.014446977566818628 -0.018731907260081837 0.5011063349982258 -0.8484160748920345 0.5011205947472304 -0.8484217410089204 -0.014450582412360932 -0.018740895612888123
120700000000.0 -0.014466351618630033 -0.018721373488257025 0.5003703355218223 -0.8488387892435134 0.5003844255652783 -0.8488448591397125 -0.01447020250379896 -0.018730254145054765
120800000000.0 -0.014485674717812232 -0.01871081516716793 0.49963399939539344 -0.8492608360860378 0.49964790831559536 -0.849267304701841 -0.014489768442098707 -0.018719581428379838
120900000000.0 -0.014504946739966355 -0.01870023247930862 0.4988973275780242 -0.8496822162027069 0.49891104410757986 -0.8496890781563607 -0.014509279921146824 -0.018708877739744497
121000000000.0 -0.014524167560102354 -0.0186896256091555 0.4981603209939063 -0.8501029303866943 0.49817383402479304 -0.8501101799788536 -0.014528736637001197 -0.01869814336292413
121100000000.0 -0.014543337052670705 -0.018678994743211632 0.4974229805320882 -0.8505229794402258 0.49743627912458094 -0.8505306106586623 -0.01454813828805764 -0.018687378588550106
121200000000.0 -0.01456245509159876 -0.018668340070045444 0.49668530704625535 -0.8509423641735555 0.4966983804377128 -0.8509503706981144 -0.014567484575213036 -0.018676583714065866
121300000000.0 -0.014581521550325216 -0.01865766178033295 0.49594730135454 -0.8513610854039323 0.49596013896804764 -0.8513694606117369 -0.014586775202030049 -0.018665759043680556
121400000000.0 -0.014600536301838786 -0.01864696006689577 0.49520896423936045 -0.8517791439545646 0.4952215556922188 -0.851787880925463 -0.014606009874898952 -0.01865490488831736
121500000000.0 -0.014619499218715389 -0.01863623512474175 0.4944702964472883 -0.8521965406535815 0.4944826315593423 -0.852205632175827 -0.014625188303197843 -0.018644021565559332
121600000000.0 -0.014638410173158431 -0.018625487151102297 0.49373129868894455 -0.8526132763329884 0.4937433674907486 -0.8526227149091571 -0.01464431019945343 -0.018633109399589138
121700000000.0 -0.01465726903704066 -0.01861471634546953 0.49299197163892877 -0.8530293518276254 0.4930037643797366 -0.8530391296807578 -0.01466337527949695 -0.018622168721126004
121800000000.0 -0.01467607568194418 -0.018603922909634415 0.49225231593577307 -0.8534447679741176 0.49226382309135064 -0.8534548770540868 -0.014682383262621978 -0.018611199867359825
121900000000.0 -0.014694829979206053 -0.01859310704772095 0.49151233218193074 -0.8538595256098318 0.4915235444621829 -0.8538699575999247 -0.014701333871738097 -0.01860020318187822
122000000000.0 -0.01471353179996155 -0.018582268966221473 0.49077202094378813 -0.8542736255718293 0.49078292930019585 -0.8542843718955444 -0.014720226833523708 -0.018589179014593678
122100000000.0 -0.014732181015189583 -0.01857140887403194 0.49003138275171304 -0.8546870686958227 0.4900419783845718 -0.8546981205238705 -0.014739061878575944 -0.018578127721663687
122200000000.0 -0.01475077749576092 -0.01856052698248272 0.48929041810012464 -0.8550998558151314 0.4893006924655819 -0.8551112040726395 -0.014757838741560282 -0.018567049665409213
122300000000.0 -0.014769321112484288 -0.018549623505372235 0.48854912744760026 -0.8555119877596447 0.4885590722644838 -0.8555236231335543 -0.01477655716135582 -0.018555945214227054
122400000000.0 -0.014787811736156202 -0.018538698658997658 0.48780751121700583 -0.8559234653547836 0.48781711847343917 -0.8559353783014391 -0.014795216881200448 -0.018544814742502743
122500000000.0 -0.014806249237611594 -0.01852775266218366 0.48706556979565935 -0.8563342894204705 0.48707483175545624 -0.8563464701733878 -0.01481381764883174 -0.018533658630515017
122600000000.0 -0.01482463348777389 -0.018516785736312314 0.4863233035355193 -0.8567444607701038 0.4863322127443583 -0.8567568993479182 -0.014832359216626964 -0.018522477264339955
122700000000.0 -0.014842964357707378 -0.01850579810535123 0.48558071275340525 -0.8571539802095376 0.4855892620447729 -0.8571666664241212 -0.014850841341739463 -0.018511271035751217
122800000000.0 -0.014861241718670823 -0.018494789995877555 0.48483779773124525 -0.8575628485360688 0.48484598023214553 -0.85757577200081 -0.014869263786233792 -0.018500040342115207
122900000000.0 -0.014879465442169889 -0.01848376163710629 0.4840945587163521 -0.8579710665374336 0.48410236785278027 -0.8579842166756755 -0.01488762631721583 -0.018488785586286065
123000000000.0 -0.014897635400014346 -0.018472713260911496 0.48335099592172664 -0.8583786349908078 0.4833584254238995 -0.858392001044436 -0.014905928706963318 -0.018477507176493185
123100000000.0 -0.014915751464372197 -0.018461645101850572 0.4826071095263902 -0.8587855546618228 0.4826141534337303 -0.858799125699996 -0.014924170733050267 -0.01846620552622968
123200000000.0 -0.014933813507826922 -0.018450557397185895 0.48186289967574364 -0.8591918263035874 0.4818695523416148 -0.8592055912316041 -0.014942352178471261 -0.01845488105413542
123300000000.0 -0.014951821403434313 -0.018439450386903335 0.48111836648195505 -0.8595974506557215 0.4811246225781412 -0.8596113982240152 -0.01496047283176064 -0.018443534183876967
123400000000.0 -0.014969775024782002 -0.01842832431373249 0.48037351002437106 -0.8600024284434014 0.48037936454530217 -0.8600165472566603 -0.014978532487109682 -0.018432165344026287
123500000000.0 -0.01498767424604796 -0.01841717942316312 0.47962833034995866 -0.860406760376418 0.47963377861667167 -0.8604210389028147 -0.014996530944480146 -0.018420774967934962
123600000000.0 -0.015005518942059145 -0.018406015963461076 0.47888282747377064 -0.8608104471482468 0.47888786513760995 -0.8608248737287784 -0.015014468009715369 -0.018409363493605002
123700000000.0 -0.015023308988353615 -0.01839483418568373 0.4781370013794371 -0.8612134894351334 0.4781416244254878 -0.8612280522930599 -0.0150323434946476 -0.01839793136356062
123800000000.0 -0.015041044261241083 -0.018383634343691148 0.47739085201968356 -0.8616158878951924 0.4773950567699346 -0.8616305751455662 -0.01505015721720061 -0.018386479024712424
123900000000.0 -0.015058724637863544 -0.01837241669415902 0.47664437931687126 -0.8620176431675219 0.47664816243310976 -0.8620324428268026 -0.015067909001490985 -0.018375006928222342
124000000000.0 -0.015076349996259055 -0.018361181496589166 0.4758975831635662 -0.8624187558713328 0.4759009416499942 -0.8624336558670784 -0.015085598677925404 -0.01836351552936708
124100000000.0 -0.015093920215423813 -0.01834992901331537 0.47515046342312756 -0.8628192266050964 0.4751533946287066 -0.8628342147857223 -0.015103226083293429 -0.018352005287393416
124200000000.0 -0.015111435175375186 -0.018338659509513033 0.474403019930323 -0.863219055945708 0.47440552155083976 -0.8632341200903086 -0.015120791060857558 -0.018340476665379087
124300000000.0 -0.015128894757215499 -0.01832737325320352 0.473655252491965 -0.8636182444476708 0.4736573225718175 -0.8636333722758911 -0.015138293460438186 -0.018328930130086046
124400000000.0 -0.015146298843196855 -0.018316070515256726 0.4729071608875714 -0.8640167926422916 0.4729087978212753 -0.8640319718242492 -0.015155733138497919 -0.018317366151812953
124500000000.0 -0.015163647316784663 -0.018304751569395167 0.472158744870045 -0.8644147010369052 0.47215994740346057 -0.8644299192031419 -0.015173109958218358 -0.018305785204246954
124600000000.0 -0.015180940062722852 -0.018293416692192713 0.4714100041663803 -0.8648119701141108 0.47141077139765225 -0.8648272148655815 -0.015190423789574739 -0.01829418776431172
124700000000.0 -0.01519817696709882 -0.018282066163075365 0.4706609384783819 -0.8652086003310315 0.47066126985860096 -0.8652238592491089 -0.015207674509408249 -0.01828257431201615
124800000000.0 -0.015215357917409073 -0.01827070026431597 0.4699115474834129 -0.8656045921185963 0.4699114428169918 -0.8656198527750916 -0.01522486200149212 -0.018270945330297234
124900000000.0 -0.015232482802623702 -0.01825931928103184 0.4691618308351564 -0.8659999458808415 0.46916129027992215 -0.8660151958480268 -0.015241986156593031 -0.018259301304867005
125000000000.0 -0.015249551513253377 -0.018247923501177706 0.4684117881643994 -0.8663946619942295 0.46841081223140235 -0.8664098888548635 -0.015259046872532765 -0.018247642724053124
125100000000.0 -0.01526656394141301 -0.018236513215537684 0.46766141907983133 -0.8667887408070035 0.4676600086328718 -0.8668039321643406 -0.015276044054239865 -0.018235970078640282
125200000000.0 -0.015283519980890076 -0.018225088717716418 0.466910723168867 -0.8671821826385482 0.46690887942373727 -0.8671973261263327 -0.015292977613803422 -0.018224283861710756
125300000000.0 -0.015300419527207548 -0.018213650304127166 0.4661596999984783 -0.8675749877787882 0.4661574245219233 -0.8675900710712192 -0.015309847470517156 -0.018212584568481863
125400000000.0 -0.01531726247769153 -0.01820219827397919 0.4654083491160482 -0.8679671564876001 0.46540564382444566 -0.8679821673092641 -0.015326653550923374 -0.01820087269614505
125500000000.0 -0.015334048731535767 -0.018190732929262952 0.4646566700502396 -0.8683586889942558 0.4646535372079981 -0.8683736151300142 -0.015343395788851046 -0.01818914874370101
125600000000.0 -0.015350778189867204 -0.018179254574734415 0.4639046623118765 -0.868749585496886 0.46390110452955696 -0.868764414801715 -0.015360074125449033 -0.018177413211797187
125700000000.0 -0.015367450755811312 -0.01816776351789577 0.4631523253948431 -0.8691398461619713 0.4631483456270017 -0.8691545665707416 -0.015376688509216781 -0.018165666602561643
125800000000.0 -0.015384066334556731 -0.018156260068976273 0.4623996587769934 -0.8695294711238575 0.46239526031974953 -0.8695440706610498 -0.015393238896029513 -0.018153909419437442
125900000000.0 -0.015400624833420236 -0.01814474454091103 0.46164666192107684 -0.8699184604842993 0.46164184840940614 -0.869932927273643 -0.015409725249159574 -0.018142142167018423
126000000000.0 -0.015417126161909772 -0.018133217249317293 0.4608933342756716 -0.8703068143120251 0.4608881096804317 -0.8703211365860589 -0.015426147539293538 -0.018130365350880202
126100000000.0 -0.015433570231790424 -0.018121678512469288 0.460139675276135 -0.8706945326423348 0.46013404390081797 -0.8707086987518765 -0.015442505744545568 -0.018118579477415242
126200000000.0 -0.015449956957145466 -0.018110128651273007 0.45938568434555993 -0.8710816154767179 0.4593796508227808 -0.8710956139002382 -0.015458799850464494 -0.018106785053666138
126300000000.0 -0.015466286254440294 -0.018098567989235745 0.4586313608957425 -0.8714680627825037 0.45862493018346634 -0.8714818821353962 -0.015475029850039602 -0.01809498258715678
126400000000.0 -0.015482558042585408 -0.018086996852438534 0.4578767043281612 -0.8718538744925372 0.4578698817056659 -0.8718675035362764 -0.015491195743699294 -0.018083172585728256
126500000000.0 -0.015498772242996886 -0.01807541556950181 0.4571217140349601 -0.8722390505048815 0.4571145050985454 -0.8722524781560631 -0.015507297539307876 -0.018071355557369002
126600000000.0 -0.015514928779657782 -0.018063824471554267 0.45636638939994323 -0.8726235906825484 0.45635880005838547 -0.8726368060218028 -0.015523335252156045 -0.018059532010050422
126700000000.0 -0.015531027579179126 -0.01805222389219675 0.4556107297995745 -0.8730074948532586 0.45560276626933227 -0.873020487134034 -0.015539308904947289 -0.018047702451560635
126800000000.0 -0.015547068570857484 -0.018040614167466357 0.4548547346039832 -0.8733907628092283 0.4548464034041549 -0.8734035214664296 -0.015555218527781947 -0.018035867389337705
126900000000.0 -0.015563051686737243 -0.018028995635797736 0.454098403177975 -0.8737733943069851 0.45408971112501795 -0.8737859089654704 -0.015571064158135682 -0.018024027330305916
127000000000.0 -0.015578976861665358 -0.018017368637982898 0.45334173488204843 -0.8741553890672098 0.4533326890842579 -0.8741676495501326 -0.0155868458408325 -0.018012182780710026
127100000000.0 -0.015594844033349133 -0.01800573351713109 0.45258472907341274 -0.8745367467746114 0.45257533692516816 -0.8745487431116001 -0.015602563628015632 -0.01800033424595331
127200000000.0 -0.015610653142413255 -0.01799409061862458 0.4518273851070105 -0.8749174670778269 0.4518176542827947 -0.874929189513002 -0.015618217579113258 -0.0179884822304338
127300000000.0 -0.015626404132454277 -0.017982440290074748 0.4510697023365428 -0.8752975495893498 0.45105964078473604 -0.8753089885891641 -0.015633807760799114 -0.017976627237383386
127400000000.0 -0.015642096950094282 -0.017970782881276518 0.4503116801154921 -0.87567699388549 0.450301296051948 -0.8756881401463942 -0.015649334246952185 -0.01796476976870719
127500000000.0 -0.015657731545034553 -0.017959118744159685 0.4495533177981502 -0.8760557995063589 0.4495426196995584 -0.8760666439622776 -0.01566479711860753 -0.01795291032482419
127600000000.0 -0.015673307870106575 -0.01794744823274128 0.44879461474064236 -0.8764339659558876 0.44878361133768163 -0.8764444997855069 -0.015680196463906493 -0.017941049404509888
127700000000.0 -0.015688825881323563 -0.017935771703074928 0.4480355703019516 -0.8768114927018669 0.44802427057224203 -0.8768217073357261 -0.015695532378042276 -0.017929187504740193
127800000000.0 -0.015704285537928138 -0.017924089513198373 0.4472761838449399 -0.8771883791760235 0.4472645970057972 -0.8771982663034024 -0.01571080496319941 -0.01791732512053574
127900000000.0 -0.015719686802444004 -0.01791240202308086 0.4465164547373701 -0.877564624774121 0.4465045902383677 -0.8775741763497182 -0.01572601432849342 -0.017905462744809596
128000000000.0 -0.015735029640718077 -0.017900709594569637 0.445756382352919 -0.8779402288560872 0.44574424986826594 -0.87794943710649 -0.015741160589901222 -0.017893600868216307
128100000000.0 -0.015750314021969608 -0.0178890125913326 0.4449959660721896 -0.8783151907461731 0.4449835754929291 -0.8783240481761048 -0.01575624387019191 -0.017881739979001846
128200000000.0 -0.015765539918832606 -0.017877311378802104 0.4442352052837187 -0.8786895097331406 0.44422256670975185 -0.8786980091314844 -0.015771264298852377 -0.017869880562855926
128300000000.0 -0.015780707307399132 -0.01786560632411682 0.44347409938497445 -0.8790631850704731 0.44346122311692054 -0.8790713195160736 -0.015786222012006888 -0.017858023102768086
128400000000.0 -0.015795816167259207 -0.01785389779606291 0.44271264778335223 -0.8794362159766205 0.44269954431424563 -0.879443978843845 -0.015801117152337 -0.017846168078883947
128500000000.0 -0.015810866481542254 -0.017842186165011514 0.4419508498971598 -0.879808601635265 0.4419375299039944 -0.8798159865993334 -0.015815949868994775 -0.01783431596836312
128600000000.0 -0.015825858236954024 -0.01783047180285962 0.44118870515659575 -0.8801803411956218 0.4411751794917225 -0.8801873422376921 -0.01583072031751339 -0.017822467245243487
128700000000.0 -0.015840791423812572 -0.017818755082965605 0.4404262130047173 -0.8805514337727592 0.4404124926871032 -0.8805580451847707 -0.015845428659712488 -0.017810622380302912
128800000000.0 -0.015855666036085295 -0.017807036380086044 0.4396633728984 -0.8809218784479499 0.4396494691047513 -0.8809280948372145 -0.01586007506360438 -0.017798781840927067
128900000000.0 -0.015870482071419122 -0.01779531607031172 0.43890018430928623 -0.8812916742690483 0.4388861083650471 -0.8812974905625913 -0.015874659703291705 -0.01778694609097906
129000000000.0 -0.015885239531174062 -0.017783594531000393 0.43813664672472197 -0.8816608202508951 0.4381224100949551 -0.8816662316995383 -0.015889182758863904 -0.017775115590670222
129100000000.0 -0.015899938420453202 -0.017771872140712127 0.43737275964868405 -0.8820293153757427 0.4373583739288382 -0.8820343175579295 -0.015903644416291617 -0.01776329079643704
129200000000.0 -0.015914578748128412 -0.017760149279140294 0.43660852260268956 -0.8823971585937121 0.4365939995092639 -0.8824017474190696 -0.01591804486731492 -0.017751472160817003
129300000000.0 -0.015929160526869945 -0.017748426327045194 0.4358439351266986 -0.8827643488232727 0.43582928648780894 -0.8827685205359073 -0.015932384309332595 -0.017739660132331622
129400000000.0 -0.015943683773167107 -0.017736703666183525 0.4350789967799962 -0.8831308849517447 0.43506423452585447 -0.8831346361332724 -0.015946662945283192 -0.01772785515536886
129500000000.0 -0.01595814850735426 -0.01772498167923986 0.43431370714206613 -0.8834967658358295 0.43429884329537516 -0.8835000934081346 -0.01596088098352558 -0.017716057670071454
129600000000.0 -0.015972554753629086 -0.01771326074975682 0.43354806581344296 -0.8838619903021611 0.43353311247971976 -0.8838648915298823 -0.01597503863771955 -0.017704268112227667
129700000000.0 -0.015986902540072158 -0.017701541262063022 0.4327820724165529 -0.8842265571478822 0.43276704177438285 -0.8842290296406243 -0.015989136126696384 -0.01769248691316399
129800000000.0 -0.016001191898664464 -0.017689823601202834 0.4320157265965352 -0.8845904651412424 0.43200063088777096 -0.8845925068555132 -0.016003173674335392 -0.017680714499643715
129900000000.0 -0.016015422865301103 -0.017678108152865055 0.43124902802204684 -0.8849537130222214 0.4312338795419535 -0.8849553222630888 -0.01601715150942929 -0.017668951293767943
130000000000.0 -0.01602959547980607 -0.01766639530330987 0.4304819763860512 -0.8853162995031699 0.43046678747340916 -0.8853174749256414 -0.016031069865553648 -0.017657197712879456
130100000000.0 -0.01604370978594053 -0.01765468543929671 0.42971457140658287 -0.8856782232694758 0.4296993544337574 -0.8856789638795979 -0.016044928980930042 -0.017645454169471043
130200000000.0 -0.016057765831414987 -0.017642978948011666 0.42894681282750097 -0.8860394829802485 0.4289315801904819 -0.8860397881359249 -0.016058729098287185 -0.017633721071097782
130300000000.0 -0.01607176366789372 -0.017631276216994587 0.42817870041921535 -0.886400077269027 0.42816346452763876 -0.8863999466805537 -0.01607247046472211 -0.01762199882029257
130400000000.0 -0.016085703351002116 -0.017619577634065766 0.4274102339793967 -0.886760004744503 0.42739500724655616 -0.8867594384748247 -0.016086153331556864 -0.017610287814485728
130500000000.0 -0.01609958494032643 -0.017607883587252685 0.4266414133336658 -0.8871192639912677 0.4266262081665173 -0.8871182624559478 -0.016099777954193546 -0.017598588445928487
130600000000.0 -0.01611340849941892 -0.017596194464716924 0.42587223833625965 -0.8874778535705744 0.4258570671254347 -0.8874764175374861 -0.01611334459196662 -0.01758690110162089
130700000000.0 -0.01612717409579217 -0.01758451065468016 0.4251027088706763 -0.887835772021122 0.4250875839805044 -0.887833902609854 -0.016126853507995614 -0.017575226163242332
130800000000.0 -0.01614088180092059 -0.01757283254535213 0.42433282485029794 -0.8881930178598482 0.4243177586088515 -0.8881907165408336 -0.016140304969035072 -0.0175635640070887
130900000000.0 -0.016154531690231202 -0.017561160524856526 0.42356258621899046 -0.8885495895827527 0.4235475909081572 -0.8885468581761123 -0.016153699245319366 -0.01755191500401102
131000000000.0 -0.016168123843098577 -0.017549494981158677 0.4227919929516823 -0.8889054856657242 0.4227770807972728 -0.8889023263398308 -0.01616703661041281 -0.017540279519360154
131100000000.0 -0.01618165834283531 -0.017537836301992522 0.42202104505491317 -0.8892607045653885 0.422006228216815 -0.8892571198351538 -0.016180317341051086 -0.017528657912934623
131200000000.0 -0.01619513527667941 -0.01752618487478854 0.4212497425673664 -0.8896152447199691 0.42123503312974875 -0.8896112374448533 -0.01619354171698656 -0.017517050538933505
131300000000.0 -0.0162085547357824 -0.01751454108660198 0.42047808556037247 -0.8899691045501662 0.42046349552194917 -0.8899646779319071 -0.016206710020829473 -0.017505457745913448
131400000000.0 -0.016221916815193083 -0.01750290532404021 0.419706074138388 -0.8903222824600419 0.41969161540275074 -0.8903174400401166 -0.0162198225378885 -0.017493879876748775
131500000000.0 -0.01623522161384019 -0.0174912779731944 0.4189337084394493 -0.8906747768379251 0.41891939280547413 -0.8906695224947333 -0.016232879556011895 -0.0174823172685999
131600000000.0 -0.0162484692345118 -0.017479659419565974 0.4181609886356029 -0.8910265860573231 0.4181468277879404 -0.8910209240031045 -0.016245881365425277 -0.01747077025288032
131700000000.0 -0.016261659783836084 -0.017468050047998576 0.4173879149333062 -0.8913777084778485 0.4173739204329614 -0.8913716432553301 -0.016258828258570016 -0.017459239155232807
131800000000.0 -0.016274793372255635 -0.01745645024260933 0.4166144875738049 -0.8917281424461521 0.4166006708488159 -0.8917216789249307 -0.01627172052994093 -0.01744772429550917
131900000000.0 -0.016287870114001547 -0.0174448603867196 0.41584070683348384 -0.8920778862968696 0.41582707916970457 -0.8920710296695334 -0.016284558475922025 -0.01743622598775263
132000000000.0 -0.016300890127069 -0.017433280862787576 0.415066573024188 -0.8924269383535757 0.41505314555618567 -0.8924196941315664 -0.016297342394625425 -0.017424744540186197
132100000000.0 -0.016313853533183344 -0.0174217120523429 0.41429208649352134 -0.8927752969297449 0.414278870195591 -0.8927676709389625 -0.016310072585724547 -0.01741328025520688
132200000000.0 -0.016326760457772035 -0.017410154335919557 0.41351724762511455 -0.8931229603297223 0.4135042533024244 -0.8931149587058795 -0.016322749350291838 -0.017401833429381192
132300000000.0 -0.01633961102993028 -0.017398608092992325 0.4127420568388672 -0.8934699268496988 0.412729295118734 -0.8934615560334245 -0.016335372990632695 -0.01739040435344817
132400000000.0 -0.016352405382384586 -0.01738707370191264 0.4119665145911619 -0.893816194778695 0.4119539959144717 -0.8938074615103959 -0.016347943810123756 -0.017378993312325848
132500000000.0 -0.016365143651457543 -0.017375551539847083 0.41119062137505075 -0.8941617623995455 0.41117835598782365 -0.8941526737140223 -0.016360462113045784 -0.017367600585122638
132600000000.0 -0.0163778259770277 -0.017364041982715465 0.41041437772041417 -0.8945066279898933 0.4104023756655276 -0.8944971912107262 -0.01637292820442313 -0.017356226445152872
132700000000.0 -0.016390452502488738 -0.01735254540513037 0.4096377841940929 -0.8948507898231842 0.40962605530316293 -0.8948410125568796 -0.016385342389856793 -0.0173448711599566
132800000000.0 -0.016403023374707636 -0.017341062180341066 0.40886084139998863 -0.895194246169662 0.40884939528542186 -0.8951841362995778 -0.016397704975364857 -0.017333534991326994
132900000000.0 -0.016415538743978657 -0.017329592680173287 0.4080835499791415 -0.8955369952973721 0.4080723960263594 -0.8955265609774161 -0.01641001626721698 -0.017322218195337188
133000000000.0 -0.016427998763980912 -0.017318137274975616 0.4073059106097742 -0.8958790354731594 0.4072950579696191 -0.8958682851212719 -0.016422276571774867 -0.017310921022376465
133100000000.0 -0.016440403591726604 -0.017306696333564544 0.40652792400731247 -0.8962203649636726 0.4065173815886395 -0.8962093072550947 -0.01643448619533177 -0.01729964371718895
133200000000.0 -0.01645275338751441 -0.01729527022317161 0.4057495909243752 -0.8965609820363608 0.4057393673868367 -0.8965496258966976 -0.01644664544395073 -0.017288386518916468
133300000000.0 -0.016465048314877835 -0.01728385930939288 0.4049709121507371 -0.8969008849604783 0.404961015897765 -0.8968892395585566 -0.016458754623309046 -0.017277149661147156
133400000000.0 -0.016477288540531876 -0.017272463956139135 0.404191888513262 -0.8972400720080768 0.4041823276852559 -0.897228146748612 -0.016470814038537205 -0.01726593337196802
133500000000.0 -0.016489474234321733 -0.017261084525589113 0.4034125208758117 -0.8975785414550036 0.40340330334353436 -0.8975663459710722 -0.01648282399406651 -0.017254737874022718
133600000000.0 -0.016501605569164374 -0.01724972137814178 0.40263281013912267 -0.8979162915818932 0.4026239434973109 -0.8979038357272208 -0.016494784793472658 -0.0172435633845713
133700000000.0 -0.016513682720993322 -0.017238374872374597 0.40185275724065855 -0.8982533206751523 0.40184424880185426 -0.8982406145162248 -0.016506696739322948 -0.01723241011555885
133800000000.0 -0.01652570586870175 -0.01722704536499976 0.4010723631544315 -0.8985896270279419 0.40106421994303765 -0.8985766808359444 -0.01651856013302599 -0.017221278273684294
133900000000.0 -0.0165376751940802 -0.017215733210824737 0.4002916288908021 -0.8989252089411537 0.40028385763736707 -0.8989120331837432 -0.016530375274681406 -0.01721016806047618
134000000000.0 -0.016549590881759165 -0.017204438762713853 0.3995105554962432 -0.899260064724378 0.39950316263198166 -0.8992466700572975 -0.016542142462933233 -0.017199079672371633
134100000000.0 -0.016561453119144552 -0.01719316237155222 0.39872914405308646 -0.8995941926968671 0.39872213570463666 -0.8995805899554059 -0.0165538619948256 -0.017188013300800845
134200000000.0 -0.016573262096357344 -0.01718190438621129 0.39794739567923343 -0.8999275911884874 0.397940777663659 -0.8999137913787969 -0.016565534165656478 -0.017176969132273498
134300000000.0 -0.016585018006166904 -0.01717066515351709 0.39716531152784873 -0.9002602585406643 0.3971590893478859 -0.9002462728309333 -0.01657715926884107 -0.01716594734847233
134400000000.0 -0.01659672104392798 -0.017159445018220608 0.3963828927870157 -0.900592193107315 0.3963770716265733 -0.9005780328188172 -0.016588737595771015 -0.017154948126349386
134500000000.0 -0.016608371407514762 -0.01714824432296984 0.395600140679379 -0.9009233932557762 0.3955947253992917 -0.9009090698537868 -0.01660026943567917 -0.01714397163822525
134600000000.0 -0.016619969297253068 -0.01713706340828408 0.3948170564617517 -0.9012538573677138 0.39481205159579114 -0.9012393824523133 -0.01661175507550681 -0.017133018051894818
134700000000.0 -0.016631514915852998 -0.017125902612531836 0.39403364142470165 -0.9015835838400253 0.39402905117584924 -0.901568969136792 -0.01662319479977401 -0.01712208753073598
134800000000.0 -0.016643008468341547 -0.017114762271909313 0.39324989689211126 -0.9019125710857292 0.39324572512909517 -0.9018978284363268 -0.016634588890451465 -0.017111180233821147
134900000000.0 -0.016654450161992292 -0.017103642720421315 0.39246582422071385 -0.9022408175348384 0.392462074474812 -0.90222595888751 -0.01664593762683668 -0.017100296316033888
135000000000.0 -0.01666584020625712 -0.017092544289867236 0.39168142479960355 -0.9025683216352218 0.39167810026171934 -0.902553359035198 -0.01665724128543203 -0.017089435928190188
135100000000.0 -0.016677178812694655 -0.01708146730982435 0.39089670004972477 -0.9028950818534511 0.3908938035677307 -0.9028800274332724 -0.01666850013982788 -0.017078599217159908
135200000000.0 -0.01668846619490017 -0.017070412107639855 0.39011165142333687 -0.9032210966756323 0.3901091854996956 -0.9032059626454039 -0.016679714460587268 -0.01706778632599755
135300000000.0 -0.016699702568436094 -0.017059379008419986 0.3893262804034518 -0.9035463646082182 0.3893242471931127 -0.9035311632457999 -0.016690884515135247 -0.017056997394071193
135400000000.0 -0.016710888150758108 -0.0170483683350243 0.38854058850325796 -0.9038708841788108 0.38853898981183144 -0.9038556278199457 -0.016702010567650156 -0.017046232557197463
135500000000.0 -0.016722023161145794 -0.017037380408062363 0.3877545772655132 -0.9041946539369384 0.3877534145477248 -0.9041793549653377 -0.01671309287896156 -0.01703549194778053
135600000000.0 -0.016733107820628913 -0.017026415545891144 0.38696824826192244 -0.9045176724548212 0.38696752262034756 -0.9045023432922049 -0.016724131706447414 -0.01702477569495184
135700000000.0 -0.016744142351918782 -0.01701547406461899 0.3861816030924914 -0.9048399383281152 0.3861813152765731 -0.9048245914242197 -0.01673512730394034 -0.017014083924717083
135800000000.0 -0.016755126979332728 -0.017004556278106393 0.3853946433848609 -0.9051614501766366 0.38539479379020986 -0.9051460979991998 -0.016746079921632656 -0.0170034167601016
135900000000.0 -0.016766061928724964 -0.016993662497975206 0.38460737079362173 -0.9054822066450703 0.3846079594615983 -0.9054668616697946 -0.016756989805990472 -0.016992774321303552
136000000000.0 -0.01677694742741406 -0.01698279303361542 0.3838197869996075 -0.9058022064036528 0.38382081361719084 -0.9057868811041625 -0.01676785719966639 -0.01698215672584504
136100000000.0 -0.016787783704111905 -0.016971948192198633 0.3830318937091738 -0.9061214481488394 0.38303335760911295 -0.9061061549866373 -0.01677868234142296 -0.01697156408873172
136200000000.0 -0.016798570988853526 -0.01696112827869187 0.38224369265345415 -0.9064399306039455 0.38224559281470355 -0.9064246820183731 -0.0167894654660531 -0.016960996522610055
136300000000.0 -0.0168093095129245 -0.01695033359587392 0.38145518558760144 -0.9067576525197708 0.38145752063604066 -0.9067424609179867 -0.016800206804311265 -0.016950454137930972
136400000000.0 -0.01681999950879233 -0.01693956444435511 0.380666374290013 -0.9070746126751967 0.3806691424994507 -0.9070594904221768 -0.016810906582845814 -0.016939937043113067
136500000000.0 -0.016830641210037658 -0.016928821122599604 0.37987726056153587 -0.907390809877765 0.37988045985499436 -0.9073757692863313 -0.016821565024136 -0.016929445344710404
136600000000.0 -0.01684123485128402 -0.01691810392695026 0.3790878462246616 -0.9077062429642305 0.3790914741759447 -0.9076912962851221 -0.016832182346434632 -0.016918979147582107
136700000000.0 -0.016851780668129538 -0.0169074131516559 0.3782981331226996 -0.9080209108010908 0.3783021869582413 -0.9080060702130803 -0.016842758763715396 -0.016908538555064336
136800000000.0 -0.01686227889708143 -0.016896749088901153 0.37750812311894527 -0.9083348122850925 0.3775125997199358 -0.9083200898851561 -0.01685329448562311 -0.01689812366914318
136900000000.0 -0.016872729775488128 -0.01688611202883878 0.3767178180958251 -0.908647946343714 0.3767227140006176 -0.9086333541372668 -0.01686378971743233 -0.01688773459063062
137000000000.0 -0.016883133541474738 -0.016875502259625724 0.3759272199540358 -0.9089603119356199 0.3759325313608254 -0.908945861826818 -0.016874244660006456 -0.016877371419342594
137100000000.0 -0.01689349043387764 -0.01686492006745921 0.3751363306116679 -0.9092719080510945 0.3751420533814469 -0.9092576118332188 -0.016884659509765032 -0.016867034254277543
137200000000.0 -0.01690380069218255 -0.016854365736618287 0.37434515200331997 -0.9095827337124477 0.37435128166310383 -0.9095686030583714 -0.016895034458656265 -0.016856723193798575
137300000000.0 -0.016914064556463052 -0.01684383954950646 0.37355368607919953 -0.9098927879743934 0.37356021782552024 -0.9098788344271437 -0.016905369694132186 -0.016846438335814822
137400000000.0 -0.016924282267318378 -0.01683334178669688 0.37276193480421776 -0.9102020699244068 0.372768863506887 -0.9101883048878276 -0.0169156653991296 -0.016836179777965952
137500000000.0 -0.01693445406581568 -0.016822872726978737 0.37196990015707165 -0.9105105786830492 0.3719772203632041 -0.9104970134125744 -0.016925921752059193 -0.016825947617806317
137600000000.0 -0.016944580193432396 -0.016812432647409795 0.37117758412932 -0.9108183134042711 0.37118529006761786 -0.9108049589978098 -0.016936138926795633 -0.01681574195299277
137700000000.0 -0.016954660891999693 -0.016802021823367194 0.3703849887244507 -0.911125273275686 0.370393074309745 -0.9111121406646351 -0.016946317092675172 -0.016805562881470195
137800000000.0 -0.016964696403648102 -0.01679164052860255 0.3695921159569414 -0.9114314575188184 0.36960057479498765 -0.9114185574592025 -0.016956456414499412 -0.01679541050165989
137900000000.0 -0.01697468697075655 -0.016781289035300646 0.3687989678513147 -0.9117368653893217 0.36880779324383683 -0.9117242084530756 -0.016966557052542474 -0.0167852849126493
138000000000.0 -0.01698463283589946 -0.016770967614137135 0.36800554644118677 -0.9120414961771736 0.36801473139116675 -0.9120290927435633 -0.016976619162564516 -0.016775186214379956
138100000000.0 -0.016994534241799704 -0.016760676534342208 0.367211853768313 -0.9123453492068385 0.36722139098552337 -0.9123332094540395 -0.016986642895830326 -0.01676511450783806
138200000000.0 -0.01700439143128059 -0.016750416063763287 0.36641789188162904 -0.912648423837409 0.3664277737884004 -0.9126365577342389 -0.016996628399135016 -0.016755069895244185
138300000000.0 -0.017014204647222538 -0.01674018646893156 0.3656236628362881 -0.9129507194627101 0.365633881573511 -0.9129391367605292 -0.017006575814832534 -0.016745052480242887
138400000000.0 -0.0170239741325196 -0.01672998801513152 0.36482916869269916 -0.913252235511386 0.3648397161260536 -0.9132409457361688 -0.01701648528087129 -0.016735062368093984
138500000000.0 -0.017033700130039717 -0.016719820966470643 0.36403441151556 -0.913552971446951 0.3640452792419667 -0.9135419838915351 -0.017026356930835682 -0.016725099665862494
138600000000.0 -0.01704338288258731 -0.016709685585951352 0.3632393933728917 -0.9138529267678166 0.36325057272718303 -0.9138422504843363 -0.017036190893992217 -0.01671516448260644
138700000000.0 -0.017053022632865587 -0.016699582135545576 0.3624441163350752 -0.9141521010072916 0.3624555983968771 -0.9141417447998021 -0.017045987295341642 -0.01670525692956972
138800000000.0 -0.017062619623447087 -0.016689510876273107 0.3616485824738837 -0.9144504937335481 0.3616603580747065 -0.9144404661508478 -0.017055746255676373 -0.016695377120367356
138900000000.0 -0.017072174096740007 -0.016679472068276996 0.36085279386152425 -0.9147481045495677 0.3608648535920533 -0.9147384138782192 -0.01706546789164355 -0.016685525171175886
139000000000.0 -0.017081686294962498 -0.016669465970905444 0.3600567525696742 -0.915044933093055 0.3600690867872574 -0.9150355873506169 -0.017075152315814912 -0.016675701200920184
139100000000.0 -0.0170911564601164 -0.016659492842791928 0.3592604606685276 -0.9153409790363218 0.3592730595048534 -0.915331985964794 -0.01708479963676017 -0.01666590533145858
139200000000.0 -0.01710058483396524 -0.016649552941940943 0.35846392022584217 -0.9156362420861536 0.3584767735947995 -0.9156276091456389 -0.01709440995912696 -0.016656137687769725
139300000000.0 -0.01710997165801526 -0.016639646525810684 0.35766713330599187 -0.9159307219836326 0.3576802309117102 -0.9159224563462245 -0.017103983383727202 -0.01664639839813511
139400000000.0 -0.017119317173498277 -0.01662977385139985 0.3568701019690277 -0.916224418503948 0.35688343331408584 -0.9162165270478477 -0.017113520007627444 -0.016636687594321936
139500000000.0 -0.0171286216213575 -0.016619935175336872 0.3560728282697425 -0.9165173314561723 0.3560863826635444 -0.9165098207600367 -0.017123019924245603 -0.016627005411763946
139600000000.0 -0.017137885242238835 -0.016610130753967733 0.3552753142567423 -0.9168094606830103 0.3552890808240487 -0.9168023370205406 -0.017132483223453898 -0.016617351989740733
139700000000.0 -0.017147108276481093 -0.016600360843446287 0.35447756197153063 -0.917100806060525 0.3544915296611434 -0.9170940753952969 -0.017141909991685234 -0.016607727471553972
139800000000.0 -0.01715629096411362 -0.01659062569982693 0.353679573447595 -0.9173913674978331 0.35369373104118745 -0.9173850354783766 -0.017151300312047736 -0.016598132004703635
139900000000.0 -0.017165433544854176 -0.016580925579156785 0.35288135070951077 -0.9176811449367759 0.35289568683059114 -0.9176752168919007 -0.017160654264441924 -0.016588565741061045
140000000000.0 -0.017174536258111273 -0.016571260737568778 0.3520828957720488 -0.9179701383515669 0.35209739889505764 -0.9179646192859465 -0.017169971925686017 -0.016579028837038736
140100000000.0 -0.017183599342990154 -0.016561631431377895 0.3512842106392991 -0.9182583477484089 0.3512988690988282 -0.9182532423384239 -0.017179253369644484 -0.016569521453759135
140200000000.0 -0.017192623038300874 -0.01655203791717512 0.3504852973038009 -0.9185457731650886 0.35050009930392917 -0.9185410857549288 -0.01718849866736247 -0.016560043757220422
140300000000.0 -0.017201607582571124 -0.01654248045192443 0.34968615774569284 -0.9188324146705471 0.34970109136942906 -0.9188281492685806 -0.017197707887207078 -0.01655059591845962
140400000000.0 -0.017210553214062563 -0.016532959293058636 0.34888679393187116 -0.9191182723644225 0.3489018471506973 -0.9191144326398327 -0.017206881095010975 -0.016541178113710735
140500000000.0 -0.017219460170788764 -0.016523474698578535 0.3480872078151617 -0.919403346376573 0.3481023684986711 -0.9193999356562649 -0.0172160183542238 -0.016531790524564837
140600000000.0 -0.017228328690538957 -0.01651402692714921 0.3472874013335105 -0.9196876368665717 0.3473026572591299 -0.9196846581323537 -0.01722511972606735 -0.016522433338121135
140700000000.0 -0.017237159010905105 -0.01650461623819885 0.3464873764091885 -0.9199711440231807 0.3465027152719794 -0.9199685999092216 -0.017234185269695706 -0.016513106747138403
140800000000.0 -0.017245951369310914 -0.016495242892016943 0.34568713494800835 -0.9202538680638022 0.34570254437053566 -0.9202517608543641 -0.01724321504236209 -0.016503810950182423
140900000000.0 -0.017254706003046003 -0.016485907149853377 0.3448866788385647 -0.9205358092339041 0.3449021463808307 -0.9205341408613593 -0.017252209099587336 -0.0164945461517689
141000000000.0 -0.017263423149303476 -0.0164766092740153 0.34408600995148736 -0.9208169678064299 0.3441015231209173 -0.9208157398495546 -0.017261167495337376 -0.01648531256250252
141100000000.0 -0.017272103045221053 -0.016467349527967853 0.3432851301387125 -0.9210973440811805 0.34330067640018774 -0.9210965577637354 -0.01727009028220162 -0.016476110399213893
141200000000.0 -0.0172807459279265 -0.016458128176431996 0.34248404123277576 -0.9213769383841797 0.34249960801870427 -0.9213765945737719 -0.017278977511578347 -0.01646693988509086
141300000000.0 -0.01728935203458542 -0.016448945485480503 0.34168274504612195 -0.9216557510670159 0.34169831976653864 -0.9216558502742467 -0.017287829233865182 -0.01645780124980499
141400000000.0 -0.017297921602455166 -0.01643980172263827 0.3408812433704354 -0.9219337825061678 0.34089681342312605 -0.9219343248840693 -0.01729664549865124 -0.016448694729637368
141500000000.0 -0.0173064548689399 -0.016430697156977234 0.34007953797599055 -0.9222110331023071 0.3400950907566277 -0.9222120184460615 -0.017305426354916838 -0.016439620567594737
141600000000.0 -0.017314952071652085 -0.016421632059215197 0.3392776306110244 -0.9224875032795851 0.33929315352331046 -0.9224889310265321 -0.01731417185123612 -0.01643057901352644
141700000000.0 -0.017323413448475135 -0.016412606701809183 0.33847552300112904 -0.9227631934848999 0.33849100346693595 -0.9227650627148323 -0.017322882035983516 -0.016421570324232183
141800000000.0 -0.01733183923763279 -0.01640362135905114 0.33767321684866725 -0.9230381041871466 0.33768864231816753 -0.9230404136228934 -0.017331556957545947 -0.016412594763568076
141900000000.0 -0.017340229677759837 -0.016394676307162633 0.3368707138322113 -0.9233122358764521 0.33688607179398833 -0.9233149838847448 -0.01734019666453681 -0.016403652602546455
142000000000.0 -0.01734858500797834 -0.016385771824386764 0.33606801560600374 -0.9235855890633909 0.33608329359713707 -0.9235887736560171 -0.01734880120601634 -0.016394744119430697
142100000000.0 -0.017356905467977128 -0.01637690819107961 0.33526512379944085 -0.9238581642781878 0.3352803094155565 -0.9238617831134325 -0.017357370631714386 -0.016385869599825346
142200000000.0 -0.017365191298094745 -0.016368085689801592 0.3344620400165823 -0.924129962069904 0.33447712092185944 -0.924134012454273 -0.0173659049922563 -0.01637702933676083
142300000000.0 -0.01737344273940765 -0.016359304605405006 0.33365876583568366 -0.9244009830056116 0.33367372977281246 -0.9244054618958355 -0.017374404339395248 -0.016368223630772435
142400000000.0 -0.0173816600338192 -0.01635056522512125 0.3328553028087553 -0.9246712276695535 0.3328701376088336 -0.9246761316748768 -0.01738286872624378 -0.016359452789973285
142500000000.0 -0.01738984342415737 -0.016341867838648137 0.33205165246114315 -0.9249406966622878 0.33206634605350754 -0.9249460220470352 -0.017391298207513443 -0.01635071713012529
142600000000.0 -0.017397993154271398 -0.016333212738231524 0.3312478162911379 -0.925209390599824 0.3312623567131225 -0.9252151332862468 -0.017399692839753275 -0.01634201697469787
142700000000.0 -0.01740610946913508 -0.016324600218748164 0.33044379576961197 -0.9254773101127495 0.3304581711762204 -0.9254834656841425 -0.017408052681595152 -0.016333352654927084
142800000000.0 -0.017414192614951893 -0.016316030577785717 0.32963959233967555 -0.9257444558453383 0.32965379101316644 -0.9257510195494357 -0.01741637779399923 -0.016324724509866214
142900000000.0 -0.017422242839267434 -0.016307504115719473 0.3288352074163676 -0.9260108284546582 0.3288492177757403 -0.9260177952072969 -0.01742466824050467 -0.016316132886429767
143000000000.0 -0.017430260391079908 -0.016299021135787885 0.32803064238636914 -0.9262764286096634 0.32804445299674456 -0.9262837929987128 -0.017432924087480175 -0.01630757813943183
143100000000.0 -0.017438245520960162 -0.016290581944166604 0.327225898607742 -0.9265412569902824 0.32723949818963066 -0.9265490132798414 -0.01744114540438104 -0.016299060631620333
143200000000.0 -0.017446198481171536 -0.016282186850037322 0.3264209774096998 -0.9268053142864948 0.3264343548481502 -0.9268134564213492 -0.017449332264004754 -0.016290580733700898
143300000000.0 -0.01745411952579368 -0.01627383616565591 0.32561588009240316 -0.927068601197408 0.32562902444602015 -0.9270771228077452 -0.01745748474275071 -0.01628213882435852
143400000000.0 -0.017462008910852173 -0.01626553020641859 0.32481060792678385 -0.9273311184303182 0.32482350843661345 -0.9273400128366971 -0.017465602920883574 -0.01627373529027037
143500000000.0 -0.017469866894448658 -0.016257269290922055 0.3240051621543943 -0.9275928666997775 0.3240178082526663 -0.9276021269183465 -0.017473686882794767 -0.01626537052611267
143600000000.0 -0.017477693736897504 -0.0162490537410239 0.32319954398729045 -0.9278538467266472 0.3232119253060114 -0.927863465474612 -0.01748173671727034 -0.016257044934560375
143700000000.0 -0.017485489700862528 -0.01624088388189753 0.32239375460793707 -0.9281140592371538 0.32240586098732815 -0.9281240289384858 -0.017489752517756085 -0.016248758926281373
143800000000.0 -0.0174932550514998 -0.0162327600420868 0.3215877951691458 -0.9283735049619403 0.3215996166659151 -0.9283838177533197 -0.017497734382628364 -0.016240512919924517
143900000000.0 -0.017500990056602682 -0.016224682553553017 0.32078166679403947 -0.9286321846351168 0.3207931936894877 -0.9286428323721123 -0.017505682415463866 -0.01623230734209704
144000000000.0 -0.017508694986749174 -0.016216651751722513 0.31997537057604236 -0.9288900989933058 0.3199865933839911 -0.9289010732567824 -0.01751359672531021 -0.016224142627340243
144100000000.0 -0.017516370115454222 -0.016208667975527422 0.31916890757890615 -0.9291472487746948 0.31917981705344245 -0.9291585408774405 -0.017521477426959836 -0.016216019218094378
144200000000.0 -0.017524015719323553 -0.016200731567446145 0.3183622788367566 -0.9294036347180827 0.31837286597979125 -0.9294152357116584 -0.017529324641222376 -0.016207937564658263
144300000000.0 -0.017531632078211377 -0.016192842873536308 0.3175554853541748 -0.9296592575619328 0.31756574142280203 -0.92967115824373 -0.017537138495200215 -0.016199898125141866
144400000000.0 -0.01753921947538074 -0.01618500224346762 0.31674852810630044 -0.9299141180434233 0.31675844461996155 -0.9299263089639322 -0.01754491912256237 -0.016191901365411925
144500000000.0 -0.01754677819766569 -0.016177210030546455 0.31594140803897136 -0.9301682168975062 0.3159509767864071 -0.9301806883677833 -0.017552666663819633 -0.016183947759028122
144600000000.0 -0.01755430853563878 -0.016169466591740757 0.3151341260688839 -0.9304215548559658 0.31514333911487713 -0.9304342969552963 -0.017560381266601442 -0.016176037787176547
144700000000.0 -0.017561810783777807 -0.0161617722876972 0.3143266830837863 -0.9306741326464845 0.31433553277568665 -0.9306871352302352 -0.017568063085929234 -0.01616817193859229
144800000000.0 -0.0175692852406385 -0.016154127482755253 0.31351907994269984 -0.9309259509917128 0.31352755891672296 -0.930939203699367 -0.017575712284494397 -0.01616035070947459
144900000000.0 -0.017576732209026794 -0.016146532544958618 0.3127113174761642 -0.9311770106083467 0.31271941866346703 -0.9311905028717178 -0.01758332903293144 -0.01615257460339947
145000000000.0 -0.017584151996174895 -0.01613898784605788 0.3119033964865145 -0.9314273122062121 0.3119111131190337 -0.9314410332578243 -0.017590913510094678 -0.01614484413121838
145100000000.0 -0.017591544913919878 -0.01613149376151338 0.3110953177481857 -0.9316768564873563 0.3111026433642395 -0.9316907953689927 -0.017598465903330137 -0.01613715981095486
145200000000.0 -0.017598911278883876 -0.016124050670489914 0.310287082008041 -0.9319256441451502 0.3102940104576895 -0.9319397897165549 -0.017605986408750968 -0.016129522167691826
145300000000.0 -0.01760625141265587 -0.016116658955846967 0.30947868998573125 -0.9321736758633982 0.3094852154358879 -0.9321880168111295 -0.01761347523150821 -0.016121931733449706
145400000000.0 -0.01761356564197592 -0.016109319004127143 0.30867014237407875 -0.9324209523154601 0.30867625931337245 -0.9324354771618865 -0.017620932586063495 -0.016114389047063103
145500000000.0 -0.017620854298922004 -0.016102031205535525 0.30786143983948977 -0.9326674741633815 0.30786714308287144 -0.9326821712758145 -0.0176283586964581 -0.01610689465404197
145600000000.0 -0.017628117721097205 -0.016094795953915757 0.3070525830223901 -0.9329132420570416 0.30705786771548044 -0.932928099656996 -0.017635753796581412 -0.016099449106433267
145700000000.0 -0.01763535625181884 -0.016087613646720504 0.30624357253768975 -0.9331582566333055 0.30624843416086434 -0.9331732628058819 -0.017643118130436883 -0.0160920529626687
145800000000.0 -0.017642570240309643 -0.01608048468497951 0.30543440897527213 -0.933402518515199 0.30543884334748117 -0.933417661218581 -0.017650451952408573 -0.016084706787411307
145900000000.0 -0.017649760041889513 -0.01607340947325639 0.30462509290050704 -0.9336460283110902 0.3046290961828267 -0.9336612953861456 -0.017657755527522863 -0.01607741115138867
146000000000.0 -0.01765692601816931 -0.01606638841960628 0.30381562485479086 -0.9338887866138906 0.3038191935537012 -0.9339041657938746 -0.017665029131708275 -0.016070166631224597
146100000000.0 -0.017664068537244827 -0.016059421935524773 0.30300600535610983 -0.9341307940002708 0.3030091363264998 -0.9341462729206169 -0.017672273052055116 -0.016062973809259928
146200000000.0 -0.01767118797389195 -0.016052510435889487 0.30219623489962744 -0.9343720510298894 0.3021989253475215 -0.934387617238088 -0.017679487587070043 -0.01605583327336497
146300000000.0 -0.01767828470976301 -0.01604565433890121 0.3013863139582945 -0.934612558244645 0.301388561443302 -0.9346281992101939 -0.01768667304692925 -0.01604874561674946
146400000000.0 -0.01768535913358391 -0.01603885406601491 0.3005762429834851 -0.9348523161679404 0.3005780454209644 -0.9348680192923644 -0.017693829753727425 -0.01604171143776156
146500000000.0 -0.017692411641350346 -0.01603211004186853 0.29976602240565126 -0.9350913253039695 0.2997673780685944 -0.9351070779309 -0.017700958041725424 -0.016034731339682178
146600000000.0 -0.017699442636526952 -0.016025422694200292 0.29895565263500284 -0.935329586137019 0.2989565601556322 -0.935345375562325 -0.017708058257593053 -0.016027805930507923
146700000000.0 -0.017706452530243326 -0.016018792453767746 0.29814513406220683 -0.9355670991307938 0.2981455924332887 -0.9355829126127574 -0.017715130760649383 -0.016020935822733458
146800000000.0 -0.017713441741494192 -0.01601221975425539 0.2973344670591092 -0.93580386472776 0.297334475634976 -0.9358196894972862 -0.017722175923098257 -0.01601412163312107
146900000000.0 -0.01772041069733509 -0.01600570503217828 0.29652365197947667 -0.9360398833485112 0.29652321047676355 -0.9360557066193663 -0.01772919413026108 -0.016007363982467073
147000000000.0 -0.017727359833081435 -0.015999248726779835 0.29571268915975685 -0.9362751553911554 0.2957117976578475 -0.9362909643702244 -0.017736185780804933 -0.016000663495359665
147100000000.0 -0.017734289592505566 -0.01599285127992328 0.29490157891985924 -0.9365096812307214 0.2949002378610436 -0.9365254631282773 -0.01774315128696692 -0.015994020799930078
147200000000.0 -0.017741200428033205 -0.01598651313597648 0.294090321563956 -0.9367434612185936 0.2940885317532947 -0.9367592032585689 -0.017750091074773322 -0.015987436527597883
147300000000.0 -0.017748092800940217 -0.01598023474169188 0.29327891738129613 -0.9369764956819644 0.29327667998619955 -0.9369921851122173 -0.017757005584255536 -0.015980911312807954
147400000000.0 -0.017754967181546177 -0.015974016546079536 0.29246736664704337 -0.937208784923315 0.29246468319655633 -0.9372244090258843 -0.017763895269659914 -0.015974445792763855
147500000000.0 -0.017761824049410752 -0.01596785900027428 0.2916556696231231 -0.9374403292199182 0.2916525420069239 -0.9374558753212546 -0.017770760599653938 -0.015968040607151464
147600000000.0 -0.017768663893525827 -0.015961762557397213 0.29084382655909474 -0.937671128823364 0.29084025702620175 -0.9376865843045339 -0.017777602057525717 -0.015961696397858133
147700000000.0 -0.01777548721250603 -0.015955727672409596 0.2900318376930284 -0.9379011839591166 0.29002782885022266 -0.9379165362659656 -0.017784420141379945 -0.015955413808685277
147800000000.0 -0.01778229451478134 -0.015949754801962895 0.28921970325240676 -0.93813049482609 0.2892152580623639 -0.9381457314793629 -0.017791215364328487 -0.015949193485054337
147900000000.0 -0.017789086318783495 -0.015943844404238964 0.28840742345503195 -0.938359061596257 0.2884025452341713 -0.9383741702016635 -0.017797988254672322 -0.015943036073706764
148000000000.0 -0.01779586315313419 -0.01593799693878924 0.2875949985099516 -0.9385868844142772 0.28758969092600106 -0.9386018526724956 -0.01780473935608346 -0.015936942222398904
148100000000.0 -0.017802625556828586 -0.015932212866362414 0.28678242861839465 -0.9388139633971592 0.28677669568767183 -0.9388287791137695 -0.01781146922777452 -0.01593091257958931
148200000000.0 -0.017809374079418964 -0.015926492648730667 0.2859697139747196 -0.9390402986339454 0.28596356005913454 -0.9390549497292854 -0.017818178444666984 -0.01592494779412199
148300000000.0 -0.017816109281194745 -0.01592083674850568 0.2851568547673722 -0.9392658901854273 0.2851502845711511 -0.9392803647043636 -0.01782486759755181 -0.0159190485149033
148400000000.0 -0.01782283173335892 -0.015915245628951462 0.28434385117985367 -0.9394907380838857 0.2843368697459884 -0.9395050242054908 -0.017831537293242543 -0.015913215390572232
148500000000.0 -0.01782954201820551 -0.015909719753789332 0.2835307033917007 -0.9397148423328652 0.28352331609812464 -0.939728928379991 -0.017838188154724256 -0.01590744906916723
148600000000.0 -0.017836240729288855 -0.015904259586997652 0.2827174115794708 -0.9399382029069698 0.2827096241349643 -0.9399520773557171 -0.017844820821292552 -0.015901750197786814
148700000000.0 -0.017842928471595874 -0.015898865592605557 0.28190397591773625 -0.9401608197516944 0.2818957943575659 -0.9401744712407619 -0.017851435948689362 -0.01589611942224524
148800000000.0 -0.017849605861710225 -0.01589353823447912 0.28109039658008594 -0.9403826927832812 0.28108182726138 -0.940396110123192 -0.017858034209230402 -0.01589055738672138
148900000000.0 -0.01785627352797429 -0.01588827797610509 0.2802766737401302 -0.9406038218886069 0.28026772333699596 -0.9406169940708042 -0.017864616291923402 -0.01588506473340691
149000000000.0 -0.01786293211065001 -0.015883085280364397 0.2794628075725163 -0.9408242069251002 0.27945348307089757 -0.9408371231309032 -0.017871182902582283 -0.015879642102145482
149100000000.0 -0.017869582262073722 -0.01587796060930176 0.27864879825394173 -0.941043847720689 0.27863910694622734 -0.9410564973301039 -0.017877734763933464 -0.01587429013006827
149200000000.0 -0.017876224646807062 -0.015872904423889726 0.2778346459641778 -0.9412627440737766 0.27782459544355936 -0.941275116674154 -0.017884272615711114 -0.015869009451228266
149300000000.0 -0.01788285994178509 -0.01586791718378867 0.2770203508870877 -0.941480895753248 0.2770099490416766 -0.9414929811477808 -0.01789079721475076 -0.015863800696226654
149400000000.0 -0.01788948883645987 -0.015862999347094554 0.2762059132116564 -0.9416983024985099 0.27619516821835716 -0.9417100907145648 -0.017897309335070742 -0.0158586644918349
149500000000.0 -0.01789611203293839 -0.015858151370088735 0.27539133313301134 -0.9419149640195551 0.27538025345116524 -0.9419264453168313 -0.01790380976794502 -0.015853601460616228
149600000000.0 -0.017902730246117254 -0.015853373706978396 0.2745766108534527 -0.9421308799970631 0.274565205218246 -0.9421420448755675 -0.017910299321973595 -0.015848612220540934
149700000000.0 -0.017909344203813432 -0.015848666809630305 0.2737617465834731 -0.9423460500825275 0.2737500239991269 -0.9423568892903673 -0.017916778823138534 -0.01584369738459741
149800000000.0 -0.017915954646887094 -0.015844031127303225 0.27294674054278567 -0.9425604738984158 0.27293471027552185 -0.9425709784393979 -0.017923249114854895 -0.015838857560402438
149900000000.0 -0.017922562329363134 -0.015839467106369076 0.27213159296134265 -0.9427741510383574 0.2721192645321367 -0.9427843121793867 -0.017929711058013522 -0.01583409334980441
150000000000.0 -0.017929168018544054 -0.015834975190036363 0.27131630408035246 -0.9429870810673663 0.27130368725748016 -0.9429968903456403 -0.017936165531014493 -0.01582940534848805
150100000000.0 -0.017935772495120485 -0.015830555818058825 0.27050087415329405 -0.9431992635220885 0.27048797894467225 -0.9432087127520823 -0.017942613429791737 -0.0158247941455708
150200000000.0 -0.017942376553273916 -0.015826209426450025 0.2696853034469244 -0.943410697911086 0.26967214009225804 -0.9434197791913179 -0.017949055667830362 -0.015820260323202138
150300000000.0 -0.017948981000775088 -0.015821936447183597 0.2688695922422817 -0.9436213837151433 0.2688561712050187 -0.9436300894347229 -0.017955493176173794 -0.015815804456156404
150400000000.0 -0.017955586659074988 -0.01581773730789308 0.26805374083567896 -0.9438313203876142 0.26804007279478154 -0.9438396432325592 -0.01796192690342233 -0.015811427111423592
150500000000.0 -0.017962194363392497 -0.015813612431566933 0.26723774953969587 -0.9440405073547883 0.2672238453812337 -0.9440484403141081 -0.017968357815725085 -0.015807128847799938
150600000000.0 -0.0179688049627929 -0.015809562236236918 0.26642161868415193 -0.944248944016293 0.2664074894927246 -0.9442564803878406 -0.0179747868967591 -0.01580291021547438
150700000000.0 -0.017975419320261504 -0.015805587134664567 0.26560534861708324 -0.9444566297455242 0.2655910056670769 -0.9444637631416004 -0.017981215147701426 -0.015798771755615608
150800000000.0 -0.01798203831277175 -0.01580168753402038 0.26478893970569695 -0.9446635638901063 0.26477439445238443 -0.9446702882428192 -0.017987643587193024 -0.015794713999954114
150900000000.0 -0.017988662831344808 -0.01579786383556141 0.2639723923373243 -0.9448697457723805 0.2639576564078131 -0.9448760553387523 -0.017994073251292667 -0.015790737470366467
151000000000.0 -0.017995293781102605 -0.015794116434302726 0.2631557069203542 -0.9450751746899219 0.26314079210439295 -0.9450810640567434 -0.0180005051934188 -0.015786842678456144
151100000000.0 -0.0180019320813168 -0.015790445718684706 0.26233888388516036 -0.945279849916087 0.26232380212580525 -0.9452853140045084 -0.01800694048428764 -0.015783030125132592
151200000000.0 -0.01800857866544598 -0.015786852070239575 0.2615219236850094 -0.945483770700587 0.26150668706916536 -0.9454888047704483 -0.01801338021183697 -0.015779300300193852
151300000000.0 -0.01801523448116986 -0.015783335863249728 0.260704826796961 -0.9456869362700897 0.26068944754579654 -0.9456915359239833 -0.018019825481143028 -0.015775653681902094
151400000000.0 -0.018021900490413616 -0.01577989746440583 0.25988759372274534 -0.945889345828853 0.259872084181997 -0.9458935070159141 -0.018026277414326088 -0.015772090736565086
151500000000.0 -0.018028577669366958 -0.01577653723245912 0.2590702249896313 -0.946090998559376 0.2590545976197996 -0.946094717578803 -0.018032737150449472 -0.015768611918112276
151600000000.0 -0.018035267008491777 -0.015773255517873425 0.2582527211512742 -0.9462918936230875 0.25823698851772037 -0.9462951671273827 -0.018039205845405512 -0.015765217667675375
151700000000.0 -0.0180419695125286 -0.015770052662470033 0.2574350827885481 -0.9464920301610549 0.2574192575515002 -0.9464948551589856 -0.0180456846717946 -0.015761908413165316
151800000000.0 -0.018048686200487073 -0.015766928999073976 0.2566173105103583 -0.9466914072947187 0.2566014054148329 -0.9466937811540005 -0.018052174818791716 -0.01575868456885342
151900000000.0 -0.018055418105635414 -0.015763884851153737 0.2557994049544351 -0.9468900241266565 0.25578343282008464 -0.9468919445763462 -0.01805867749200795 -0.01575554653494955
152000000000.0 -0.01806216627547881 -0.01576092053245951 0.2549813667881101 -0.9470878797413672 0.2549653404990024 -0.9470893448739737 -0.018065193913336754 -0.015752494697182953
152100000000.0 -0.01806893177172866 -0.015758036346661525 0.2541631967090686 -0.947284973206082 0.2541471292034063 -0.9472859814793887 -0.018071725320794256 -0.01574952942638562
152200000000.0 -0.018075715670266577 -0.015755232586982564 0.2533448954460829 -0.9474813035716014 0.2533287997058726 -0.9474818538101938 -0.018078272968350646 -0.015746651078074568
152300000000.0 -0.018082519061096113 -0.01575250953582944 0.25252646375972493 -0.9476768698731495 0.25251035280040185 -0.9476769612696601 -0.018084838125745933 -0.01574385999203636
152400000000.0 -0.01808934304829077 -0.015749867464423847 0.25170790244305236 -0.947871671131258 0.2516917893030715 -0.9478713032473097 -0.018091422078304418 -0.015741156491914356
152500000000.0 -0.018096188749928913 -0.01574730663243058 0.25088921232227646 -0.9480657063526674 0.2508731100526766 -0.9480648791195272 -0.018098026126732194 -0.015738540884797432
152600000000.0 -0.018103057298022304 -0.01574482728758404 0.25007039425740263 -0.9482589745312517 0.25005431591134974 -0.9482576882501917 -0.01810465158690934 -0.015736013460810126
152700000000.0 -0.018109949838436064 -0.01574242966531313 0.24925144914284728 -0.9484514746489654 0.24923540776517158 -0.9484497299913259 -0.018111299789670684 -0.015733574492706258
152800000000.0 -0.018116867530798914 -0.01574011398836627 0.24843237790803074 -0.9486432056768066 0.2484163865247586 -0.948641003683765 -0.018117972080577045 -0.015731224235464643
152900000000.0 -0.018123811548405016 -0.015737880466434682 0.24761318151794284 -0.9488341665758052 0.24759725312583594 -0.9488315086578494 -0.018124669819678387 -0.015728962925888296
153000000000.0 -0.01813078307810649 -0.015735729295775016 0.24679386097368394 -0.9490243562980247 0.24677800852979442 -0.9490212442341323 -0.018131394381262753 -0.015726790782206807
153100000000.0 -0.018137783320196967 -0.01573366065883095 0.24597441731297748 -0.9492137737875876 0.24595865372422382 -0.9492102097241101 -0.01813814715360298 -0.0157247080036797
153200000000.0 -0.018144813488286976 -0.015731674723855803 0.24515485161065542 -0.9494024179817124 0.24513918972343138 -0.9493984044309633 -0.018144929538687293 -0.01572271477020767
153300000000.0 -0.01815187480916856 -0.015729771644533812 0.24433516497911734 -0.9495902878117749 0.24431961756893983 -0.9495858276503282 -0.018151742951943186 -0.015720811241943668
153400000000.0 -0.01815896852267067 -0.015727951559602216 0.24351535856875955 -0.9497773822043759 0.24349993832996422 -0.9497724786710704 -0.01815858882195255 -0.015718997558909743
153500000000.0 -0.018166095881507853 -0.015726214592473094 0.24269543356837525 -0.9499637000824356 0.24268015310386803 -0.949958356776087 -0.018165468590156372 -0.01571727384061799
153600000000.0 -0.018173258151117363 -0.01572456085085651 0.24187539120552604 -0.9501492403662908 0.24186026301659908 -0.9501434612431192 -0.01817238371054944 -0.015715640185695882
153700000000.0 -0.018180456609485394 -0.015722990426384555 0.24105523274688284 -0.9503340019748164 0.24104026922310237 -0.9503277913455808 -0.018179335649367308 -0.015714096671516572
153800000000.0 -0.018187692546969142 -0.015721503394234417 0.24023495949853843 -0.950517983826553 0.24022017290771347 -0.9505113463534034 -0.018186325884764185 -0.01571264335383247
153900000000.0 -0.018194967266102653 -0.01572009981275583 0.23941457280628559 -0.9507011848408476 0.23939997528452517 -0.950694125533896 -0.01819335590647956 -0.015711280266416223
154000000000.0 -0.018202282081400043 -0.015718779723096873 0.23859407405586877 -0.9508836039390103 0.23857967759773524 -0.9508761281526152 -0.018200427215497927 -0.015710007420705267
154100000000.0 -0.018209638319144072 -0.015717543148833994 0.2377734646731993 -0.9510652400454742 0.23775928112196562 -0.9510573534742544 -0.01820754132369917 -0.015708824805453124
154200000000.0 -0.01821703731716761 -0.015716390095602842 0.2369527461245439 -0.9512460920889731 0.236938787162564 -0.9512378007635386 -0.01821469975349994 -0.01570773238638564
154300000000.0 -0.018224480424624805 -0.015715320550729783 0.2361319199166784 -0.9514261590037189 0.23611819705587628 -0.9514174692861379 -0.018221904037485925 -0.01570673010586256
154400000000.0 -0.018231969001754184 -0.015714334482869085 0.23531098759700725 -0.9516054397305954 0.23529751216949532 -0.9515963583095856 -0.018229155718035208 -0.01570581788254724
154500000000.0 -0.018239504419629265 -0.01571343184163982 0.2344899507536552 -0.951783933218354 0.23447673390248566 -0.9517744671042141 -0.01823645634693518 -0.01570499561108087
154600000000.0 -0.01824708805990475 -0.01571261255726755 0.23366881101552187 -0.9519616384248175 0.2336558636855821 -0.9519517949440955 -0.018243807484988713 -0.015704263161764785
154700000000.0 -0.018254721314546793 -0.01571187654022642 0.23284757005230455 -0.9521385543180902 0.23283490298136164 -0.9521283411079916 -0.0182512107016126 -0.01570362038024673
154800000000.0 -0.018262405585559666 -0.01571122368088898 0.23202622957448907 -0.9523146798777667 0.23201385328439264 -0.9523041048803168 -0.018258667574428518 -0.0157030670872191
154900000000.0 -0.01827014228469971 -0.015710653849174368 0.23120479133330368 -0.9524900140961545 0.23119271612135117 -0.952479085552105 -0.01826617968884586 -0.015702603078118528
155000000000.0 -0.018277932833180275 -0.01571016689420386 0.23038325712064447 -0.9526645559794874 0.23037149305111995 -0.9526532824219833 -0.018273748637636176 -0.015702228122836538
155100000000.0 -0.018285778661369878 -0.015709762643960633 0.22956162876896008 -0.9528383045491515 0.2295501856648497 -0.9528266947971552 -0.018281376020499503 -0.01570194196543855
155200000000.0 -0.018293681208475562 -0.01570944090495045 0.22873990815111048 -0.9530112588429046 0.22872879558600323 -0.9529993219943896 -0.01828906344362359 -0.015701744323886678
155300000000.0 -0.018301641922223496 -0.01570920146187051 0.22791809718018505 -0.9531834179160954 0.22790732447036538 -0.9531711633410095 -0.018296812519236236 -0.01570163488977424
155400000000.0 -0.018309662258527568 -0.015709044077279972 0.22709619780928966 -0.9533547808428867 0.22708577400602822 -0.9533422181758908 -0.01830462486515001 -0.015701613328065734
155500000000.0 -0.018317743681145516 -0.015708968491278775 0.2262742120312999 -0.953525346717475 0.22626414591334823 -0.9535124858504637 -0.01831250210429778 -0.015701679276847905
155600000000.0 -0.01832588766133283 -0.015708974421188335 0.22545214187857904 -0.9536951146553023 0.22544244194487478 -0.9536819657297141 -0.01832044586426381 -0.01570183234708682
155700000000.0 -0.018334095677483158 -0.015709061561239617 0.22462998942266327 -0.9538640837942703 0.2246206638852522 -0.9538506571931877 -0.018328457776808617 -0.015702072122394543
155800000000.0 -0.01834236921475823 -0.015709229582266778 0.22380775677391113 -0.9540322532959455 0.2237988135510917 -0.9540185596359995 -0.01833653947738265 -0.015702398158805243
155900000000.0 -0.01835070976471465 -0.015709478131405608 0.22298544608112117 -0.9541996223467618 0.2229768927908162 -0.9541856724698381 -0.018344692604638405 -0.01570280998455932
156000000000.0 -0.018359118824917964 -0.01570980683179891 0.222163059531114 -0.9543661901592132 0.22215490348447695 -0.9543519951239731 -0.01835291879993345 -0.01570330709989714
156100000000.0 -0.01836759789854734 -0.0157102152823093 0.22134059934828054 -0.9545319559730415 0.22133284754354013 -0.9545175270462604 -0.01836121970682831 -0.01570388897686317
156200000000.0 -0.018376148493996637 -0.01571070305723567 0.22051806779410005 -0.9546969190564162 0.22051072691064846 -0.9546822677041471 -0.018369596970577183 -0.015704555059117418
156300000000.0 -0.01838477212445944 -0.01571126970603918 0.2196954671666194 -0.9548610787070977 0.2196885435593497 -0.9548462165856698 -0.01837805223761611 -0.01570530476175811
156400000000.0 -0.01839347030751477 -0.015711914753075745 0.21887279979990337 -0.9550244342536026 0.21886629949380135 -0.955009373200457 -0.018386587155040414 -0.0157061374711549
156500000000.0 -0.01840224456469648 -0.01571263769733412 0.21805006806345012 -0.9551869850563462 0.2180439967484427 -0.9551717370807161 -0.018395203370080878 -0.015707052544789383
156600000000.0 -0.01841109642105997 -0.015713438012183705 0.21722727436157482 -0.9553487305087793 0.21722163738764233 -0.9553333077822295 -0.018403902529573735 -0.015708049311108637
156700000000.0 -0.018420027404739293 -0.015714315145128627 0.21640442113275993 -0.955509670038509 0.2163992235053148 -0.9554940848853315 -0.01841268627942318 -0.01570912706938734
156800000000.0 -0.018429039046496207 -0.015715268517570487 0.21558151084897373 -0.9556698031084079 0.2155767572245094 -0.9556540679958881 -0.018421556264065733 -0.015710285089600925
156900000000.0 -0.01843813287926032 -0.015716297524578288 0.21475854601495814 -0.9558291292177055 0.21475424069697305 -0.9558132567462657 -0.018430514125920172 -0.015711522612308616
157000000000.0 -0.01844731043766617 -0.015717401534668104 0.21393552916748154 -0.9559876479030669 0.21393167610268007 -0.9559716507962905 -0.018439561504841353 -0.015712838848548336
157100000000.0 -0.018456573257578254 -0.01571857988958963 0.21311246287456623 -0.9561453587396519 0.2131090656493422 -0.9561292498342032 -0.01844870003756837 -0.015714232979740714
157200000000.0 -0.018465922875610243 -0.01571983190412279 0.21228934973467883 -0.9563022613421593 0.21228641157188188 -0.9562860535775998 -0.018457931357163414 -0.0157157041576055
157300000000.0 -0.01847536082864031 -0.015721156865883275 0.211466192375896 -0.9564583553658509 0.21146371613188633 -0.9564420617743657 -0.01846725709245425 -0.01571725150408872
157400000000.0 -0.018484888653314612 -0.015722554035135877 0.2106429934550352 -0.9566136405075565 0.2106409816170274 -0.9565972742035954 -0.01847667886746914 -0.015718874111299786
157500000000.0 -0.01849450788554759 -0.01572402264461913 0.2098197556567613 -0.9567681165066618 0.2098182103404602 -0.9567516906765017 -0.018486198300868624 -0.01572057104146169
157600000000.0 -0.01850422006001539 -0.015725561899377235 0.20899648169265908 -0.9569217831460697 0.20899540464019103 -0.9569053110373161 -0.018495817005375767 -0.015722341326870278
157700000000.0 -0.01851402670964156 -0.015727170976604365 0.20817317430028148 -0.957074640253145 0.20817256687842095 -0.9570581351641658 -0.018505536587202574 -0.015724183969867758
157800000000.0 -0.01852392936507887 -0.015728849025496126 0.2073498362421675 -0.9572266877006349 0.20734969944086232 -0.9572101629699488 -0.018515358645474263 -0.01572609794282465
157900000000.0 -0.018533929554182427 -0.015730595167113445 0.2065264703048351 -0.9573779254075672 0.20652680473603094 -0.9573613944031855 -0.01852528477165137 -0.01572808218813611
158000000000.0 -0.018544028801481347 -0.015732408494255088 0.20570307929774276 -0.9575283533401181 0.2057038851945089 -0.9575118294488566 -0.018535316548948886 -0.01573013561822771
158100000000.0 -0.018554228627639117 -0.015734288071341623 0.20487966605223187 -0.9576779715124701 0.2048809432681882 -0.9576614681292294 -0.018545455551755925 -0.015732257115574567
158200000000.0 -0.018564530548915034 -0.015736232934308782 0.20405623342043766 -0.9578267799876263 0.20405798142948428 -0.9578103105046579 -0.018555703345050464 -0.01573444553273063
158300000000.0 -0.018574936076616373 -0.015738242090513634 0.20323278427417757 -0.9579747788782107 0.2032350021705284 -0.9579583566743767 -0.018566061483816 -0.01573669969237216
158400000000.0 -0.018585446716545738 -0.015740314518649743 0.20240932150381594 -0.9581219683472402 0.20241200800233433 -0.9581056067772655 -0.018576531512454496 -0.015739018387351148
158500000000.0 -0.018596063968448564 -0.01574244916867368 0.20158584801710316 -0.9582683486088586 0.20158900145394287 -0.9582520609926012 -0.018587114964201665 -0.015741400380760752
158600000000.0 -0.01860678932544905 -0.015744644961744422 0.20076236673799605 -0.9584139199290619 0.20076598507154314 -0.95839771954079 -0.018597813360538312 -0.015743844406014843
158700000000.0 -0.018617624273488377 -0.015746900790170992 0.19993888060545015 -0.9585586826263739 0.19994296141756954 -0.9585425826840741 -0.01860862821060299 -0.015746349166936076
158800000000.0 -0.01862857029075579 -0.015749215517376267 0.19911539257219618 -0.9587026370725064 0.19911993306977982 -0.9586866507272251 -0.018619561010605672 -0.01574891333786105
158900000000.0 -0.01863962884711645 -0.01575158797786568 0.19829190560349308 -0.9588457836929816 0.19829690262030927 -0.9588299240182091 -0.01863061324323985 -0.015751535563750554
159000000000.0 -0.018650801403536737 -0.015754016977216678 0.19746842267586007 -0.9589881229677263 0.19747387267470284 -0.9589724029488293 -0.018641786377096205 -0.015754214460321322
159100000000.0 -0.01866208941150584 -0.015756501292070273 0.19664494677579428 -0.9591296554316396 0.19665084585093173 -0.9591140879553554 -0.01865308186607689 -0.0157569486141799
159200000000.0 -0.018673494312454617 -0.015759039670141632 0.19582148089846482 -0.9592703816751157 0.19582782477838467 -0.9592549795191161 -0.01866450114880986 -0.015759736582975532
159300000000.0 -0.018685017537171583 -0.015761630830240833 0.1949980280463927 -0.9594103023445509 0.19500481209684192 -0.9593950781670751 -0.018676045648066398 -0.015762576895563967
159400000000.0 -0.018696660505217906 -0.01576427346230462 0.19417459122811326 -0.9595494181428024 0.19418181045543265 -0.9595343844723841 -0.018687716770178858 -0.0157654680521813
159500000000.0 -0.018708424624339148 -0.0157669662274421 0.19335117345682132 -0.9596877298296236 0.19335882251156936 -0.9596728990549036 -0.01869951590446012 -0.015768408524632557
159600000000.0 -0.018720311289873115 -0.01576970775799014 0.19252777774900562 -0.9598252382220622 0.19253585092987063 -0.9598106225817057 -0.0187114444226263 -0.015771396756489062
159700000000.0 -0.018732321884161955 -0.01577249665758651 0.1917044071230632 -0.9599619441948224 0.19171289838106204 -0.9599475557675442 -0.018723503678219445 -0.015774431163303317
159800000000.0 -0.01874445777595803 -0.01577533150124871 0.19088106459790763 -0.960097848680596 0.19088996754086468 -0.9600836993753019 -0.01873569500603732 -0.01577751013282942
159900000000.0 -0.018756720319828092 -0.015778210835472272 0.19005775319155732 -0.9602329526703545 0.19006706108886479 -0.960219054216412 -0.018748019721559997 -0.015780632025262455
160000000000.0 -0.018769110855563823 -0.015781133178336078 0.18923447591971973 -0.9603672572136059 0.18924418170737203 -0.9603536211512448 -0.018760479120385042 -0.015783795173483113
160100000000.0 -0.018781630707582653 -0.01578409701962376 0.18841123579436153 -0.9605007634186222 0.18842133208026124 -0.960487401089474 -0.01877307447766295 -0.015786997883319397
160200000000.0 -0.01879428118433551 -0.015787100820957765 0.18758803582226746 -0.9606334724526185 0.1875985148918007 -0.9606203949904106 -0.018785807047536015 -0.015790238433818455
160300000000.0 -0.018807063577711697 -0.015790143015943957 0.1867648790035958 -0.960765385541906 0.18677573282547005 -0.9607526038633082 -0.018798678062586557 -0.015793515077529553
160400000000.0 -0.018819979162443986 -0.015793222010332612 0.18594176833042222 -0.9608965039720073 0.18595298856276343 -0.9608840287676403 -0.018811688733279923 -0.01579682604080068
160500000000.0 -0.018833029195515515 -0.015796336182188744 0.18511870678527786 -0.9610268290877246 0.18513028478198348 -0.9610146708133458 -0.018824840247419414 -0.01580016952408509
160600000000.0 -0.018846214915569207 -0.01579948388207873 0.18429569733968382 -0.9611563622931844 0.18430762415702473 -0.9611445311610446 -0.01883813376960496 -0.01580354370226084
160700000000.0 -0.018859537542313367 -0.01580266343326684 0.18347274295267763 -0.9612851050518362 0.18348500935614528 -0.961273611022227 -0.018851570440693046 -0.015806946724961024
160800000000.0 -0.01887299827593578 -0.01580587313192742 0.18264984656933891 -0.9614130588864143 0.18266244304073212 -0.9614019116594038 -0.01886515137726553 -0.01581037671691644
160900000000.0 -0.01888659829651331 -0.015809111247368758 0.18182701111931046 -0.9615402253788625 0.1818399278640578 -0.9615294343862355 -0.01887887767110262 -0.015813831778309417
161000000000.0 -0.018900338763428972 -0.015812376022269547 0.1810042395153194 -0.9616666061702253 0.18101746647002825 -0.9616561805676229 -0.018892750388661825 -0.015817309985137844
161100000000.0 -0.018914220814788777 -0.01581566567292946 0.1801815346516952 -0.9617922029604916 0.18019506149192605 -0.961782151619768 -0.018906770570562184 -0.015820809389592225
161200000000.0 -0.018928245566840304 -0.015818978389532064 0.17935889940289235 -0.96191701750841 0.17937271555114795 -0.9619073490102037 -0.01892093923107616 -0.01582432802044299
161300000000.0 -0.01894241411339801 -0.015822312336421087 0.17853633662200702 -0.9620410516312596 0.17855043125593442 -0.9620317742577937 -0.01893525735762602 -0.015827863883438403
161400000000.0 -0.018956727525268415 -0.015825665652388878 0.1777138491393053 -0.9621643072045848 0.17772821120010132 -0.9621554289326945 -0.018949725910290583 -0.015831414961714852
161500000000.0 -0.01897118684968124 -0.015829036450978575 0.17689143976074548 -0.9622867861618917 0.17690605796176104 -0.9622783146562905 -0.018964345821312224 -0.01583497921621499
161600000000.0 -0.01898579310972457 -0.015832422820798733 0.1760691112665117 -0.9624084904943082 0.17608397410204665 -0.962400433101094 -0.01897911799462002 -0.015838554586120105
161700000000.0 -0.01900054730378159 -0.015835822825850925 0.17524686640955112 -0.9625294222502011 0.1752619621638343 -0.9625217859906111 -0.018994043305353255 -0.015842138989291252
161800000000.0 -0.019015450404975796 -0.015839234505869767 0.17442470791411277 -0.9626495835347626 0.17444002467046027 -0.9626423750991836 -0.01900912259939526 -0.015845730322719253
161900000000.0 -0.01903050336061879 -0.015842655876676215 0.1736026384743019 -0.9627689765095513 0.17361816412444478 -0.9627622022517816 -0.019024356692915752 -0.015849326462988436
162000000000.0 -0.019045707091663026 -0.01584608493054226 0.1727806607526343 -0.9628876033920002 0.17279638300621045 -0.9628812693237799 -0.01903974637191978 -0.01585292526674637
162100000000.0 -0.01906106249216228 -0.01584951963657066 0.17195877737860746 -0.9630054664548863 0.1719746837728094 -0.9629995782406939 -0.01905529239180678 -0.015856524571187667
162200000000.0 -0.019076570428734566 -0.015852957941083382 0.17113699094727589 -0.9631225680257629 0.17115306885664616 -0.9631171309778798 -0.01907099547693661 -0.015860122194543573
162300000000.0 -0.019092231740035173 -0.01585639776802616 0.17031530401784117 -0.9632389104863529 0.17033154066420986 -0.9632339295602096 -0.019086856320205264 -0.015863715936583773
162400000000.0 -0.01910804723623253 -0.015859837019382234 0.1694937191122542 -0.9633544962719086 0.16951010157480725 -0.9633499760617058 -0.01910287558263072 -0.015867303579126645
162500000000.0 -0.019124017698492105 -0.01586327357560084 0.16867223871382836 -0.9634693278705326 0.16868875393930355 -0.9634652726051511 -0.01911905389294493 -0.015870882886559162
162600000000.0 -0.01914014387846883 -0.01586670529603542 0.16785086526587006 -0.9635834078224612 0.16786750007886864 -0.9635798213616544 -0.01913539184719887 -0.01587445160636452
162700000000.0 -0.019156426497803657 -0.015870130019395277 0.16702960117032095 -0.9636967387193162 0.16704634228372803 -0.9636936245501955 -0.019151890008374403 -0.01587800746966008
162800000000.0 -0.019172866247629556 -0.015873545564209356 0.16620844878642108 -0.9638093232033186 0.16622528281192694 -0.9638066844371341 -0.019168548906007596 -0.015881548191744654
162900000000.0 -0.019189463788086336 -0.01587694972929829 0.16538741042938293 -0.9639211639664631 0.16540432388809784 -0.9639190033356771 -0.019185369035822825 -0.01588507147265013
163000000000.0 -0.019206219747841348 -0.01588034029426287 0.16456648836908833 -0.964032263749667 0.1645834677022405 -0.9640305836053321 -0.01920235085937448 -0.015888574997706767
163100000000.0 -0.01922313472361852 -0.015883715019980604 0.16374568482880375 -0.9641426253418751 0.16376271640851345 -0.9641414276513091 -0.019219494803700225 -0.015892056438112354
163200000000.0 -0.01924020927973917 -0.015887071649113873 0.1629250019839125 -0.964252251579139 0.1629420721240329 -0.9642515379239056 -0.019236801260988128 -0.015895513451511935
163300000000.0 -0.019257443947667843 -0.015890407906630623 0.16210444196067053 -0.9643611453436566 0.16212153692768727 -0.9643609169178535 -0.019254270588248613 -0.015898943682583305
163400000000.0 -0.019274839225570037 -0.0158937215003333 0.16128400683498303 -0.9644693095627802 0.16130111285896492 -0.9644695671716331 -0.01927190310700274 -0.015902344763630134
163500000000.0 -0.01929239557787744 -0.015897010121401184 0.16046369863120316 -0.9645767472079964 0.16048080191679243 -0.9645774912667621 -0.019289699102978078 -0.01590571431518366
163600000000.0 -0.019310113434865134 -0.01590027144494127 0.15964351932095414 -0.9646834612938681 0.1596606060583906 -0.9646846918270482 -0.01930765882581814 -0.015909049946609074
163700000000.0 -0.019327993192235826 -0.015903503130550587 0.158823470821977 -0.964789454876951 0.15884052719814576 -0.9647911715178165 -0.01932578248880211 -0.01591234925672071
163800000000.0 -0.019346035210716917 -0.01590670282288758 0.15800355499700064 -0.9648947310546723 0.1580205672064941 -0.9648969330451006 -0.019344070268576097 -0.015915609834402204
163900000000.0 -0.019364239815667112 -0.015909868152255625 0.1571837736526405 -0.9649992929641881 0.15720072790882786 -0.9650019791548115 -0.0193625223048974 -0.01591882925923458
164000000000.0 -0.01938260729669268 -0.015912996735191958 0.15636412853832252 -0.9651031437812044 0.15638101108441638 -0.9651063126318721 -0.01938113870038878 -0.015922005102126574
164100000000.0 -0.019401137907276714 -0.015916086175071068 0.15554462134523542 -0.9652062867187726 0.15556141846534624 -0.9652099362993242 -0.01939991952030693 -0.0159251349259558
164200000000.0 -0.01941983186441682 -0.015919134062713967 0.15472525370530724 -0.9653087250260566 0.15474195173547867 -0.9653128530174092 -0.019418864792320505 -0.015928216286211657
164300000000.0 -0.01943868934827755 -0.01592213797700782 0.15390602719022 -0.9654104619870703 0.15392261252943484 -0.9654150656826159 -0.019437974506304002 -0.01593124673164509
164400000000.0 -0.01945771050185092 -0.015925095485534033 0.1530869433104434 -0.9655115009193941 0.153103402431592 -0.9655165772267102 -0.01945724861413999 -0.015934223804922463
164500000000.0 -0.019476895430632184 -0.015928004145204476 0.15226800351430456 -0.9656118451728586 0.15228432297510602 -0.9656173906157239 -0.01947668702953718 -0.01593714504328339
164600000000.0 -0.019496244202304724 -0.015930861502908074 0.15144920918709096 -0.9657114981282088 0.15146537564095874 -0.9657175088489323 -0.01949628962785955 -0.01594000797920737
164700000000.0 -0.019515756846438297 -0.01593366509616117 0.1506305616501778 -0.9658104631957395 0.15064656185702394 -0.9658169349577957 -0.019516056245968035 -0.01594281014107727
164800000000.0 -0.01953543335420138 -0.0159364124537725 0.14981206216019638 -0.9659087438139117 0.14982788299716018 -0.965915672004881 -0.01953598668207588 -0.015945549053854553
164900000000.0 -0.019555273678082675 -0.01593910109650686 0.1489937119082292 -0.9660063434479421 0.14900934038032476 -0.9660137230827509 -0.019556080695616984 -0.01594822223975073
165000000000.0 -0.019575277731628975 -0.015941728537764616 0.14817551201904072 -0.966103265588376 0.14819093526971752 -0.966111091312844 -0.01957633800712652 -0.01595082721890888
165100000000.0 -0.01959544538919375 -0.01594429228426321 0.14735746355034385 -0.9661995137496301 0.14737266887194392 -0.966207779844312 -0.019596758298134835 -0.015953361510083558
165200000000.0 -0.01961577648569935 -0.015946789836726073 0.14653956749209798 -0.9662950914685275 0.14655454233621293 -0.9663037918528508 -0.019617341211074373 -0.01595582263132529
165300000000.0 -0.019636270816414194 -0.015949218690579803 0.14572182476584655 -0.9663900023028016 0.14573655675355285 -0.9663991305394992 -0.01963808634920173 -0.01595820810066842
165400000000.0 -0.01965692813674098 -0.015951576336655802 0.14490423622408827 -0.9664842498295909 0.144918713156064 -0.9664937991294222 -0.01965899327652919 -0.015960515436818545
165500000000.0 -0.019677748162020024 -0.015953860261898663 0.1440868026496813 -0.9665778376439115 0.1441010125161884 -0.966587800870668 -0.01968006151777305 -0.01596274215984601
165600000000.0 -0.019698730567347396 -0.015956067950079093 0.14326952475529267 -0.9666707693571114 0.1432834557460209 -0.9666811390329075 -0.01970129055831466 -0.015964885791875938
165700000000.0 -0.01971987498740399 -0.015958196882514347 0.1424524031828757 -0.966763048595317 0.1424660436966395 -0.9667738169061595 -0.019722679844172888 -0.015966943857784955
165800000000.0 -0.01974118101630214 -0.015960244538791322 0.1416354385031913 -0.9668546789978539 0.1416487771574688 -0.9668658377994822 -0.019744228781992626 -0.015968913885895688
165900000000.0 -0.01976264820744531 -0.015962208397495764 0.14081863121536506 -0.9669456642156667 0.14083165685567667 -0.9669572050396673 -0.01976593673904571 -0.015970793408671954
166000000000.0 -0.01978427607339994 -0.015964085936945337 0.140001981746485 -0.9670360079097143 0.14001468345559925 -0.9670479219698982 -0.019787803043243738 -0.015972579963417534
166100000000.0 -0.019806064085786373 -0.015965874635927718 0.13918549045123207 -0.9671257137493601 0.13919785755819455 -0.9671379919484039 -0.019809826983168678 -0.015974271092972663
166200000000.0 -0.01982801167517968 -0.015967571974440254 0.1383691576115585 -0.9672147854107516 0.13838117970053257 -0.9672274183470895 -0.019832007808111982 -0.015975864346409633
166300000000.0 -0.019850118231028575 -0.01596917543443629 0.13755298343639855 -0.9673032265751875 0.13756465035531623 -0.9673162045501593 -0.019854344728130652 -0.01597735727973154
166400000000.0 -0.019872383101587704 -0.015970682500571425 0.13673696806142185 -0.9673910409274775 0.13674826993043257 -0.9674043539527177 -0.019876836914116392 -0.015978747456567743
166500000000.0 -0.019894805593864837 -0.0159720906609554 0.13592111154882708 -0.9674782321542945 0.13593203876854026 -0.9674918699593633 -0.019899483497876423 -0.015980032448869374
166600000000.0 -0.019917384973583634 -0.01597339740790471 0.135105413887174 -0.9675648039425205 0.1351159571466877 -0.9675787559827674 -0.019922283572229513 -0.015981209837603278
166700000000.0 -0.019940120465161235 -0.015974600238698657 0.13428987499125694 -0.9676507599775855 0.13430002527596555 -0.9676650154422406 -0.01994523619111576 -0.0159822772134457
166800000000.0 -0.019963011251700774 -0.01597569665633517 0.13347449470201997 -0.9677361039418025 0.13348424330119696 -0.9677506517622907 -0.019968340369718562 -0.01598323217747272
166900000000.0 -0.019986056474999406 -0.015976684170290863 0.1326592727865095 -0.9678208395127019 0.13266861130065466 -0.9678356683711693 -0.019991595084600508 -0.01598407234184891
167000000000.0 -0.02000925523557196 -0.01597756029728128 0.13184420893787022 -0.9679049703613536 0.13185312928582038 -0.967920068699408 -0.02001499927385342 -0.015984795330515524
167100000000.0 -0.020032606592688264 -0.015978322562020662 0.13102930277538127 -0.9679885001507035 0.13103779720117356 -0.9680038561783505 -0.020038551837260173 -0.015985398779874548
167200000000.0 -0.020056109564428302 -0.015978968497984553 0.13021455384453232 -0.9680714325338947 0.13022261492401846 -0.9680870342386733 -0.020062251636471306 -0.01598588033946913
167300000000.0 -0.020079763127750935 -0.015979495648170396 0.12939996161714248 -0.9681537711525955 0.12940758226434593 -0.9681696063089006 -0.020086097495193977 -0.015986237672662645
167400000000.0 -0.02010356621857818 -0.015979901565860363 0.128585525491517 -0.9682355196353323 0.1285926989647292 -0.9682515758139165 -0.02011008819939453 -0.015986468457314523
167500000000.0 -0.020127517731896628 -0.015980183815382024 0.12777124479264895 -0.9683166815958177 0.12777796470025768 -0.9683329461734698 -0.020134222497513506 -0.01598657038645024
167600000000.0 -0.02015161652187065 -0.01598033997286748 0.12695711877245602 -0.9683972606312878 0.12696337907850383 -0.9684137208006747 -0.020158499100694872 -0.015986541168929374
167700000000.0 -0.020175861401975886 -0.01598036762701494 0.12614314661006487 -0.9684772603208449 0.12614894163952958 -0.9684939031005132 -0.02018291668302614 -0.01598637853010887
167800000000.0 -0.020200251145144215 -0.015980264379844844 0.12532932741212915 -0.9685566842237984 0.12533465185592577 -0.9685734964683262 -0.020207473881793798 -0.015986080212501766
167900000000.0 -0.020224784483924972 -0.015980027847455357 0.12451566021319505 -0.9686355358780251 0.12452050913288895 -0.9686525042883174 -0.020232169297749205 -0.01598564397643078
168000000000.0 -0.02024946011066383 -0.015979655660778906 0.12370214397609933 -0.9687138187983234 0.12370651280833418 -0.9687309299320412 -0.020257001495388657 -0.015985067600678023
168100000000.0 -0.02027427667769368 -0.01597914546632999 0.12288877759241354 -0.9687915364747893 0.12289266215304424 -0.968808776756906 -0.02028196900324493 -0.015984348883128347
168200000000.0 -0.020299232797543473 -0.01597849492695695 0.12207555988292547 -0.9688686923711927 0.12207895637085425 -0.9688860481046686 -0.02030707031419293 -0.01598348564140762
168300000000.0 -0.020324327043160582 -0.01597770172258504 0.12126248959816131 -0.9689452899233679 0.12126539459887564 -0.9689627472999375 -0.02033230388576386 -0.015982475713514466
168400000000.0 -0.020349557948148887 -0.015976763550959644 0.12044956541894378 -0.9690213325376207 0.12045197590774993 -0.9690388776486762 -0.020357668140476525 -0.01598131695844793
168500000000.0 -0.020374924007024075 -0.01597567812838464 0.11963678595699616 -0.9690968235891387 0.1196386993019461 -0.9691144424367131 -0.020383161466177423 -0.01598000725682715
168600000000.0 -0.020400423675478823 -0.015974443190455146 0.11882414975557598 -0.9691717664204261 0.11882556372008846 -0.969189444928257 -0.020408782216391714 -0.015978544511503785
168700000000.0 -0.020426055370670253 -0.01597305649278931 0.11801165529015557 -0.9692461643397453 0.11801256803532215 -0.969263888364415 -0.020434528710691034 -0.015976926648171182
168800000000.0 -0.020451817471514595 -0.0159715158117503 0.11719930096913386 -0.9693200206195782 0.11719971105571612 -0.9693377759617235 -0.020460399235066117 -0.015975151615961844
168900000000.0 -0.0204777083190028 -0.015969818945167767 0.1163870851345912 -0.9693933384951051 0.11638699152469835 -0.9694111109106829 -0.02048639204231612 -0.015973217388040903
169000000000.0 -0.0205037262165274 -0.015967963713051793 0.11557500606307425 -0.9694661211626988 0.11557440812152903 -0.9694838963743021 -0.020512505352446853 -0.015971121962191373
169100000000.0 -0.020529869430225386 -0.0159659479583018 0.11476306196642777 -0.969538371778439 0.11476195946180838 -0.9695561354866563 -0.02053873735308056 -0.015968863361391698
169200000000.0 -0.020556136189335675 -0.015963769547407393 0.113951250992652 -0.9696100934566472 0.11394964409801864 -0.9696278313514489 -0.020565086199876386 -0.01596643963438455
169300000000.0 -0.02058252468656933 -0.01596142637114565 0.11313957122680157 -0.9696812892684402 0.11313746052010158 -0.9696989870405927 -0.020591550016962577 -0.015963848856237813
169400000000.0 -0.02060903307849691 -0.015958916345269986 0.11232802069191762 -0.9697519622403068 0.11232540715606955 -0.9697696055927977 -0.020618126897378273 -0.015961089128898223
169500000000.0 -0.02063565948594585 -0.015956237411192353 0.11151659734999793 -0.9698221153527061 0.11151348237265211 -0.9698396900121744 -0.020644814903524794 -0.015958158581735427
169600000000.0 -0.020662401994416813 -0.01595338753665808 0.11070529910299358 -0.9698917515386892 0.11070168447597425 -0.9699092432668532 -0.02067161206763022 -0.015955055372077528
169700000000.0 -0.02068925865450916 -0.015950364716413007 0.10989412379384685 -0.9699608736825465 0.10989001171227028 -0.9699782682876169 -0.020698516392221245 -0.015951777685737727
169800000000.0 -0.020716227482363354 -0.01594716697286326 0.10908306920755852 -0.9700294846184778 0.10907846226863098 -0.9700467679665484 -0.020725525850605265 -0.01594832373753009
169900000000.0 -0.020743306460114547 -0.015943792356725547 0.10827213307228496 -0.9700975871292871 0.1082670342737794 -0.9701147451556966 -0.020752638387362965 -0.015944691771779408
170000000000.0 -0.020770493536361498 -0.015940238947670087 0.10746131306047133 -0.9701651839451109 0.10745572579888274 -0.970182202665762 -0.020779851918849606 -0.015940880062818893
170100000000.0 -0.020797786626647486 -0.01593650485495472 0.10665060679001195 -0.9702322777421646 0.1066445348583973 -0.9702491432647952 -0.02080716433370705 -0.015936886915478347
170200000000.0 -0.020825183613952896 -0.015932588218048216 0.10584001182544187 -0.9702988711415254 0.10583345941093944 -0.9703155696769201 -0.020834573493381643 -0.015932710665562195
170300000000.0 -0.02085268234920477 -0.01592848720724709 0.10502952567916016 -0.9703649667079369 0.10502249736019317 -0.9703814845810754 -0.02086207723265322 -0.015928349680319785
170400000000.0 -0.020880280651793003 -0.015924200024279907 0.10421914581267558 -0.97043056694865 0.10421164655584361 -0.9704468906097751 -0.020889673360173153 -0.015923802358901364
170500000000.0 -0.020907976310104548 -0.015919724902902898 0.10340886963788753 -0.9704956743122894 0.10340090479454324 -0.9705117903478925 -0.020917359659009167 -0.01591906713280712
170600000000.0 -0.02093576708206579 -0.01591506010948571 0.1025986945183874 -0.9705602911877539 0.102590269820906 -0.9705761863314674 -0.020945133887198916 -0.015914142466323746
170700000000.0 -0.02096365069569818 -0.015910203943586193 0.10178861777079208 -0.970624419903147 0.10177973932853134 -0.9706400810465325 -0.020972993778310876 -0.01590902685695035
170800000000.0 -0.02099162484968688 -0.015905154738515188 0.10097863666609795 -0.9706880627247408 0.10096931096105528 -0.9707034769279698 -0.02100093704201422 -0.0159037188358156
170900000000.0 -0.021019687213958204 -0.015899910861888 0.10016874843106113 -0.9707512218559738 0.10015898231322885 -0.9707663763583849 -0.021028961364655183 -0.015898216968079894
171000000000.0 -0.0210478354302706 -0.015894470716167057 0.09935895024960545 -0.9708138994364788 0.09934875093202702 -0.9708287816670108 -0.021057064409840186 -0.015892519853328107
171100000000.0 -0.02107606711281545 -0.01588883273919361 0.098549239264243 -0.9708760975411501 0.09853861431777626 -0.9708906951286367 -0.02108524381902615 -0.015886626125954543
171200000000.0 -0.021104379848828736 -0.015882995404704087 0.09773961257752958 -0.9709378181792414 0.09772856992531902 -0.9709521189625618 -0.02111349721211912 -0.015880534455529352
171300000000.0 -0.021132771199213685 -0.01587695722283869 0.09693006725353065 -0.9709990632935019 0.09691861516519057 -0.9710130553315803 -0.02114182218807644 -0.015874243547159234
171400000000.0 -0.021161238699172944 -0.01587071674063603 0.09612060031931455 -0.9710598347593468 0.09610874740483218 -0.9710735063409884 -0.02117021632551743 -0.015867752141835296
171500000000.0 -0.021189779858850993 -0.015864272542513512 0.09531120876645917 -0.971120134384063 0.09529896396981936 -0.9711334740376242 -0.021198677183338625 -0.01586105901676569
171600000000.0 -0.02121839216398713 -0.015857623250738116 0.09450188955258175 -0.9711799639060557 0.09448926214511633 -0.9711929604089351 -0.021227202301335776 -0.015854162985700332
171700000000.0 -0.02124707307657594 -0.01585076752588408 0.09369263960288295 -0.9712393249941285 0.0936796391763532 -0.9712519673820758 -0.021255789200830814 -0.015847062899242554
171800000000.0 -0.021275820035538972 -0.01584370406727441 0.09288345581170934 -0.9712982192468014 0.09287009227112401 -0.9713104968230337 -0.02128443538530307 -0.01583975764514759
171900000000.0 -0.021304630457403783 -0.01583643161341404 0.09207433504412939 -0.9713566481916692 0.0920606186003043 -0.9713685505357884 -0.021313138341027018 -0.015832246148609005
172000000000.0 -0.02133350173699289 -0.015828948942404313 0.0912652741375252 -0.9714146132847978 0.09125121529939133 -0.9714261302615018 -0.02134189553771385 -0.015824527372534508
172100000000.0 -0.021362431248119356 -0.015821254872347864 0.09045626990319713 -0.9714721159101573 0.09044187946986021 -0.9714832376777354 -0.021370704429157526 -0.015816600317807114
172200000000.0 -0.021391416344291727 -0.01581334826173911 0.08964731912798156 -0.9715291573790963 0.0896326081805417 -0.9715398743977087 -0.02139956245388375 -0.01580846402353557
172300000000.0 -0.021420454359426515 -0.015805228009838766 0.08883841857587892 -0.9715857389298547 0.08882339846901406 -0.9715960419695786 -0.021428467035806305 -0.015800117567292205
172400000000.0 -0.021449542608567414 -0.015796893057036594 0.08802956498969353 -0.9716418617271174 0.0880142473430148 -0.9716517418757645 -0.021457415584883 -0.015791560065336958
172500000000.0 -0.021478678388612504 -0.015788342385198408 0.08722075509268042 -0.9716975268616053 0.0872051517818668 -0.9717069755322966 -0.02148640549777631 -0.015782790672830074
172600000000.0 -0.02150785897904661 -0.015779575017999127 0.0864119855902055 -0.9717527353497081 0.08639610873791917 -0.9717617442882016 -0.021515434158518903 -0.01577380858403194
172700000000.0 -0.021537081642682237 -0.01577059002124246 0.08560325317140635 -0.9718074881331604 0.08558711513800303 -0.9718160494249266 -0.02154449893917853 -0.015764613032489563
172800000000.0 -0.02156634362640618 -0.01576138650316256 0.08479455451086508 -0.9718617860787524 0.08477816788490128 -0.9718698921557902 -0.021573597200530422 -0.015755203291209875
172900000000.0 -0.021595642161929673 -0.015751963614716744 0.08398588627028343 -0.971915629978083 0.08396926385882819 -0.9719232736254738 -0.02160272629272487 -0.01574557867282514
173000000000.0 -0.021624974466547316 -0.015742320549856522 0.08317724510016333 -0.9719690205473596 0.08316039991892442 -0.9719761949095478 -0.021631883555964383 -0.015735738529737
173100000000.0 -0.02165433774390029 -0.015732456545788098 0.08236862764148961 -0.9720219584272287 0.08235157290475985 -0.9720286570140294 -0.021661066321177768 -0.015725682254255174
173200000000.0 -0.02168372918474115 -0.01572237088321767 0.0815600305274164 -0.9720744441826551 0.0815427796378456 -0.9720806608749805 -0.02169027191069647 -0.015715409278720244
173300000000.0 -0.02171314596770931 -0.015712062886577838 0.08075145038495325 -0.9721264783028385 0.08073401692315971 -0.9721322073581401 -0.021719497638932925 -0.015704919075613565
173400000000.0 -0.02174258526010481 -0.015701531924243634 0.07994288383665188 -0.972178061201172 0.07992528155067422 -0.9721832972585914 -0.021748740813060986 -0.015694211157655884
173500000000.0 -0.021772044218669608 -0.01569077740872939 0.07913432750229324 -0.97222919321524 0.07911657029689635 -0.9722339313004661 -0.02177799873369326 -0.015683285077891147
173600000000.0 -0.02180151999037156 -0.01567979879687252 0.07832577800056859 -0.9722798746068606 0.07830787992640706 -0.9722841101366871 -0.02180726869556318 -0.015672140429760596
173700000000.0 -0.0218310097131903 -0.01566859558999888 0.07751723195076443 -0.9723301055621625 0.07749920719341688 -0.972333834348746 -0.021836547988204308 -0.015660776847159063
173800000000.0 -0.021860510516907808 -0.015657167334077664 0.07670868597443463 -0.9723798861917083 0.0766905488433129 -0.972383104446515 -0.021865833896630965 -0.015649194004485542
173900000000.0 -0.02189001952390068 -0.015645513619853228 0.07590013669707596 -0.9724292165306538 0.075881901614219 -0.9724319208681014 -0.021895123702017474 -0.015637391616673598
174000000000.0 -0.021919533849934253 -0.01563363408297007 0.07509158074979143 -0.9724780965389541 0.07507326223855516 -0.9724802839797352 -0.02192441468237822 -0.015625369439215827
174100000000.0 -0.021949050604959944 -0.015621528404074724 0.07428301477094974 -0.9725265261015992 0.07426462744459741 -0.9725281940756924 -0.021953704113245202 -0.015613127268171524
174200000000.0 -0.02197856689391208 -0.015609196308903736 0.07347443540783458 -0.9725745050288972 0.0734559939580389 -0.9725756513782591 -0.021982989268345535 -0.015600664940161393
174300000000.0 -0.022008079817507544 -0.015596637568360506 0.07266583931828649 -0.9726220330567991 0.07264735850355307 -0.9726226560377295 -0.022012267420277166 -0.015587982332354925
174400000000.0 -0.022037586473045923 -0.015583851998568947 0.07185722317233377 -0.9726691098472531 0.07183871780635186 -0.9726692081324427 -0.022041535841182965 -0.015575079362438361
174500000000.0 -0.02206708395520952 -0.015570839460918046 0.07104858365381157 -0.9727157349886076 0.07103006859374424 -0.9727153076688555 -0.022070791803422838 -0.01556195598857665
174600000000.0 -0.022096569356864555 -0.015557599862085453 0.0702399174619705 -0.972761907996048 0.0702214075966919 -0.9727609545816507 -0.022100032580244715 -0.015548612209357299
174700000000.0 -0.022126039769860422 -0.015544133154048997 0.0694312213130708 -0.9728076283120725 0.06941273155135974 -0.9728061487338859 -0.02212925544644985 -0.015535048063727205
174800000000.0 -0.0221554922858316 -0.01553043933408107 0.0686224919419613 -0.9728528953070051 0.06860403720066008 -0.9728508899171742 -0.02215845767906196 -0.015521263630915196
174900000000.0 -0.02218492399699512 -0.015516518444726625 0.06781372610364753 -0.9728977082795497 0.06779532129579657 -0.972895177851904 -0.022187636557985287 -0.015507259030340066
175000000000.0 -0.022214331996948194 -0.015502370573766461 0.06700492057483888 -0.9729420664573761 0.06698658059779426 -0.9729390121874966 -0.022216789366665952 -0.015493034421511188
175100000000.0 -0.02224371338146696 -0.01548799585416536 0.06619607215548214 -0.9729859689977454 0.06617781187902795 -0.972982392502695 -0.022245913392747382 -0.015478590003915164
175200000000.0 -0.022273065249297935 -0.015473394464002648 0.06538717767027508 -0.9730294149881743 0.06536901192473746 -0.9730253183058937 -0.0222750059287226 -0.015463926016888995
175300000000.0 -0.022302384702952264 -0.015458566626389914 0.06457823397016554 -0.973072403447127 0.06456017753453845 -0.9730677890354995 -0.02230406427258168 -0.015449042739485325
175400000000.0 -0.02233166884949502 -0.01544351260937019 0.06376923793382325 -0.9731149333247513 0.06375130552391713 -0.9731098040603317 -0.022333085728457082 -0.01543394049032213
175500000000.0 -0.022360914801332003 -0.01542823272580583 0.06296018646909733 -0.9731570035036429 0.0629423927257175 -0.9731513626800543 -0.022362067607263666 -0.015418619627425197
175600000000.0 -0.0223901196769936 -0.01541272733324606 0.062151076514453535 -0.9731986127996478 0.06213343599161806 -0.9731924641256456 -0.022391007227333413 -0.015403080548054789
175700000000.0 -0.022419280601914917 -0.01539699683378359 0.0613419050403823 -0.973239759962695 0.06132443219359106 -0.9732331075598986 -0.022419901915047474 -0.01538732368852527
175800000000.0 -0.02244839470921322 -0.01538104167389441 0.06053266905079086 -0.9732804436776631 0.060515378225350934 -0.9732732920779585 -0.022448749005461722 -0.015371349524011247
175900000000.0 -0.02247745914045699 -0.015364862344262405 0.05972336558436624 -0.9733206625652795 0.05970627100378792 -0.9733130167078932 -0.02247754584292667 -0.01535515856834326
176000000000.0 -0.022506471046438797 -0.015348459379589077 0.058913991715918476 -0.9733604151830524 0.05889710747038515 -0.9733522804112971 -0.022506289781705574 -0.0153387513737932
176100000000.0 -0.022535427587932637 -0.015331833358388886 0.058104544557693295 -0.9733997000262286 0.05808788459262043 -0.9733910820839243 -0.02253497818658042 -0.015322128530848932
176200000000.0 -0.02256432593645682 -0.015314984902770308 0.05729502126066412 -0.9734385155287886 0.05727859936535238 -0.9734294205563612 -0.022563608433460714 -0.015305290667977797
176300000000.0 -0.02259316327502345 -0.015297914678201322 0.05648541901579124 -0.9734768600644635 0.05646924881218393 -0.9734672945947243 -0.0225921779099792 -0.015288238451381365
176400000000.0 -0.02262193679888539 -0.015280623393261744 0.0556757350552583 -0.9735147319477885 0.05565982998681293 -0.9735047029013927 -0.022620684016083758 -0.0152709725847382
176500000000.0 -0.022650643716278396 -0.015263111799379463 0.054865966653677656 -0.9735521294351759 0.05485033997435928 -0.9735416441157716 -0.022649124164625316 -0.015253493808937358
176600000000.0 -0.022679281249154803 -0.01524538069055466 0.05405611112926737 -0.9735890507260232 0.05404077589267319 -0.9735781168150848 -0.02267749578193646 -0.015235802901802561
176700000000.0 -0.022707846633910785 -0.015227430903069496 0.05324616584499994 -0.9736254939638417 0.05323113489362514 -0.9736141195151982 -0.022705796308403095 -0.015217900677806232
176800000000.0 -0.022736337122107885 -0.015209263315183208 0.052436128209717416 -0.9736614572374126 0.05242141416436718 -0.9736496506714708 -0.022734023199032498 -0.015199787987774122
176900000000.0 -0.02276474998118737 -0.015190878846814313 0.05162599567921897 -0.9736969385819695 0.05161161092858033 -0.973684708679639 -0.02276217392401072 -0.015181465718580393
177000000000.0 -0.022793082495175126 -0.015172278459209295 0.050815765757315896 -0.973731935980402 0.050801722447693126 -0.9737192918767217 -0.022790245969255628 -0.015162934792833245
177100000000.0 -0.022821331965381355 -0.015153463154598317 0.05000543599685335 -0.973766447364484 0.049991746022079106 -0.97375339854196 -0.0228182368369599 -0.015144196168553344
177200000000.0 -0.02284949571109046 -0.015134433975837983 0.049195004000699274 -0.9738004706161243 0.04918167899222663 -0.9737870268977807 -0.022846144046129842 -0.01512525083884112
177300000000.0 -0.022877571070243807 -0.01511519200603945 0.04838446742270408 -0.9738340035686354 0.048371518739889534 -0.9738201751107846 -0.02287396513311331 -0.015106099831536263
177400000000.0 -0.02290555540011235 -0.015095738368188017 0.047573823968621594 -0.973867044008029 0.047561262689206504 -0.9738528412927608 -0.022901697652122313 -0.015086744208870621
177500000000.0 -0.022933446077963358 -0.01507607422474499 0.04676307139699751 -0.9738995896743238 0.04675090830779503 -0.9738850235017322 -0.022929339175745776 -0.015067185067109513
177600000000.0 -0.02296124050171386 -0.015056200777242222 0.04595220752002521 -0.9739316382628771 0.04594045310782196 -0.9739167197430127 -0.022956887295456276 -0.015047423536187413
177700000000.0 -0.02298893609057995 -0.01503611926586133 0.04514123020436493 -0.9739631874257306 0.04512989464704275 -0.9739479279703006 -0.022984339622106168 -0.015027460779336066
177800000000.0 -0.023016530285711483 -0.015015830969003557 0.0443301373719269 -0.9739942347729759 0.044319230529814596 -0.9739786460867876 -0.023011693786418208 -0.0150072979927037
177900000000.0 -0.023044020550820263 -0.014995337202844752 0.04351892700062059 -0.9740247778741329 0.04350845840808042 -0.9740088719462886 -0.02303894743946435 -0.01498693640496535
178000000000.0 -0.0230714043727971 -0.014974639320884218 0.04270759712506406 -0.9740548142595443 0.042697575982322364 -0.9740386033543992 -0.023066098253140172 -0.014966377276931111
178100000000.0 -0.023098679262318365 -0.014953738713477953 0.04189614583726323 -0.9740843414217848 0.04188658100248958 -0.9740678380696698 -0.023093143920625756 -0.014945621901141973
178200000000.0 -0.02312584275444413 -0.014932636807362051 0.0410845712872476 -0.9741133568170806 0.041075471268891266 -0.9740965738047944 -0.02312008215684253 -0.014924671601460925
178300000000.0 -0.023152892409201726 -0.014911335065168832 0.040272871683673675 -0.9741418578667428 0.040264244633062836 -0.9741248082278298 -0.02314691069889816 -0.014903527732659199
178400000000.0 -0.023179825812162037 -0.014889834984927122 0.03946104529438774 -0.9741698419586127 0.03945289899859799 -0.9741525389634226 -0.02317362730652288 -0.014882191679991597
178500000000.0 -0.023206640575003976 -0.014868138099557754 0.03864909044695415 -0.9741973064485124 0.03864143232195254 -0.9741797635940583 -0.023200229762497974 -0.014860664858771749
178600000000.0 -0.02323333433606525 -0.014846245976355784 0.03783700552914438 -0.9742242486617094 0.03782984261321391 -0.9742064796613258 -0.0232267158730741 -0.014838948713934945
178700000000.0 -0.023259904760885755 -0.014824160216465836 0.03702478898938776 -0.9742506658943852 0.03701812793684008 -0.974232684667197 -0.023253083468380856 -0.014817044719601047
178800000000.0 -0.02328634954273524 -0.014801882454345964 0.036212439337183995 -0.9742765554151135 0.036206286412363155 -0.9742583760753221 -0.023279330402826204 -0.014794954378627153
178900000000.0 -0.023312666403133148 -0.01477941435722391 0.035399955143481474 -0.974301914466342 0.03539431621506727 -0.974283551312338 -0.023305454555487947 -0.014772679222158417
179000000000.0 -0.023338853092352254 -0.014756757624544729 0.03458733504100998 -0.9743267402658815 0.03458221557662168 -0.9743082077691904 -0.023331453830494345 -0.01475022080917165
179100000000.0 -0.02336490738991344 -0.014733913987409095 0.03377457772458282 -0.974351030008395 0.03376998278569243 -0.9743323428024682 -0.023357326157395306 -0.014727580726014355
179200000000.0 -0.023390827105068186 -0.01471088520800504 0.03296168195135734 -0.9743747808668939 0.032957616188514054 -0.9743559537357452 -0.023383069491527013 -0.014704760585940078
179300000000.0 -0.02341661007726551 -0.014687673079029906 0.03214864654105322 -0.9743979899942329 0.032145114189424916 -0.9743790378609416 -0.023408681814360763 -0.014681762028638396
179400000000.0 -0.023442254176609483 -0.014664279423107494 0.0313354703761418 -0.9744206545246072 0.031332475251375946 -0.9744015924396844 -0.02343416113384829 -0.014658586719761264
179500000000.0 -0.02346775730430406 -0.014640706092195152 0.030522152401987905 -0.9744427715750476 0.030519697896398856 -0.9744236147046813 -0.023459505484755342 -0.014635236350444007
179600000000.0 -0.023493117393081252 -0.014616954966985967 0.029708691626959778 -0.974464338246917 0.02970678070604238 -0.9744451018611059 -0.023484712928982337 -0.014611712636824786
179700000000.0 -0.02351833240762249 -0.014593027956304063 0.02889508712249636 -0.9744853516274034 0.028893722321772265 -0.9744660510879817 -0.023509781555882146 -0.01458801731955862
179800000000.0 -0.023543400344961544 -0.014568926996492164 0.028081338023142114 -0.9745058087910068 0.028080521445340414 -0.9744864595395774 -0.023534709482559497 -0.014564152163328398
179900000000.0 -0.023568319234876053 -0.014544654050795967 0.027267443526539207 -0.9745257068010268 0.027267176839113966 -0.9745063243468068 -0.023559494854167976 -0.014540118956354032
180000000000.0 -0.02359308714026869 -0.014520211108739424 0.02645340289338372 -0.974545042711043 0.02645368732637238 -0.9745256426186341 -0.023584135844195216 -0.014515919509895874
180100000000.0 -0.023617702157529445 -0.014495600185498074 0.025639215447345664 -0.9745638135663861 0.025640051791569463 -0.9745444114434753 -0.02360863065473333 -0.014491555657759492
180200000000.0 -0.02364216241688982 -0.014470823321264658 0.024824880574951386 -0.9745820164056048 0.02482626918056058 -0.9745626278906105 -0.0236329775167477 -0.014467029255793898
180300000000.0 -0.023666466082760167 -0.014445882580610995 0.024010397725427776 -0.9745996482619264 0.024012338500793214 -0.9745802890115933 -0.023657174690329616 -0.01444234218138978
180400000000.0 -0.023690611354055573 -0.014420780051847115 0.023195766410513723 -0.9746167061647024 0.023198258821466092 -0.9745973918416609 -0.023681220464941494 -0.014417496332976463
180500000000.0 -0.023714596464506996 -0.014395517846371388 0.022380986204228567 -0.9746331871408496 0.022384029273647233 -0.974613933401146 -0.02370511315965301 -0.014392493629512735
180600000000.0 -0.02373841968295771 -0.014370098098024833 0.021566056742613013 -0.9746490882162763 0.021569649050364778 -0.9746299106968824 -0.02372885112336543 -0.014367336009983385
180700000000.0 -0.02376207931365031 -0.01434452296243284 0.020750977723428148 -0.9746644064172985 0.020755117406657236 -0.9746453207236149 -0.02375243273502816 -0.014342025432886154
180800000000.0 -0.023785573696493978 -0.01431879461635085 0.01993574890582356 -0.9746791387720406 0.01994043365959296 -0.974660160465399 -0.023775856403843856 -0.014316563875723375
180900000000.0 -0.023808901207324 -0.014292915257003193 0.019120370109966204 -0.9746932823118288 0.019125597188250944 -0.9746744268970057 -0.023799120569466037 -0.014290953334489704
181000000000.0 -0.02383206025814325 -0.014266887101421884 0.018304841216641398 -0.9747068340725596 0.018310607433672677 -0.97468811698531 -0.02382222370218293 -0.0142651958231609
181100000000.0 -0.023855049297351716 -0.014240712385780945 0.017489162166814235 -0.9747197910960619 0.017495463898776 -0.9747012276906835 -0.02384516430309866 -0.014239293373179784
181200000000.0 -0.023877866809962248 -0.014214393364731275 0.016673332961160144 -0.974732150431435 0.016680166148234983 -0.9747137559683741 -0.02386794090429622 -0.01421324803294476
181300000000.0 -0.023900511317802166 -0.014187932310731734 0.01585735365956374 -0.974743909136377 0.01586471380832964 -0.9747256987698819 -0.023890552068998303 -0.014187061867294945
181400000000.0 -0.023922981379702273 -0.0141613315133795 0.015041224380584365 -0.9747550642784877 0.015049106566759105 -0.9747370530443247 -0.023912996391714812 -0.014160736956997436
181500000000.0 -0.023945275591669934 -0.014134593278740538 0.01422494530088904 -0.9747656129365568 0.014233344172422162 -0.9747478157397941 -0.023935272498381333 -0.01413427539823384
181600000000.0 -0.02396739258705137 -0.014107719928679194 0.013408516654657284 -0.9747755522018304 0.013417426435167308 -0.9747579838047034 -0.023957379046489365 -0.014107679302088864
181700000000.0 -0.023989331036677337 -0.014080713800186263 0.012591938732951313 -0.9747848791792584 0.012601353225506364 -0.9747675541891208 -0.023979314725206615 -0.014080950794036828
181800000000.0 -0.024011089648997282 -0.014053577244707679 0.011775211883060533 -0.9747935909887162 0.011785124474299895 -0.9747765238460959 -0.024001078255488768 -0.014054092013430422
181900000000.0 -0.024032667170200795 -0.014026312627474351 0.01095833650781513 -0.9748016847662104 0.01096874017240941 -0.9747848897329683 -0.02402266839017996 -0.014027105112991448
182000000000.0 -0.024054062384321968 -0.01399892232683143 0.010141313064870795 -0.9748091576650583 0.01015220037031775 -0.9747926488126674 -0.02404408391410764 -0.01399999225830076
182100000000.0 -0.024075274113334245 -0.01397140873356841 0.009324142065966773 -0.9748160068570406 0.009335505177719751 -0.974799798054994 -0.024065323644165325 -0.013972755627289994
182200000000.0 -0.024096301217230116 -0.013943774250252073 0.008506824076153965 -0.974822229533536 0.008518654763079633 -0.9748063344378912 -0.024086386429388224 -0.013945397409736746
182300000000.0 -0.024117142594087346 -0.013916021290558925 0.007689359713002687 -0.9748278229066255 0.007701649353164213 -0.9748122549486942 -0.02410727115102065 -0.013917919806758529
182400000000.0 -0.02413779718012292 -0.01388815227861003 0.0068717496457780915 -0.9748327842101742 0.006884489232540181 -0.9748175565853684 -0.024127976722572834 -0.013890325030310178
182500000000.0 -0.02415826394973353 -0.013860169648309753 0.0060539945945950226 -0.9748371107008841 0.006067174743046625 -0.974822236357728 -0.024148502089869503 -0.013862615302684537
182600000000.0 -0.02417854191552338 -0.013832075842682513 0.005236095329546953 -0.9748407996593215 0.005249706283236725 -0.9748262912886363 -0.024168846231092035 -0.013834792856011142
182700000000.0 -0.024198630128319045 -0.01380387331321805 0.004418052669812517 -0.9748438483909172 0.004432084307793267 -0.9748297184151872 -0.024189008156810594 -0.01380685993176315
182800000000.0 -0.02421852767717158 -0.013775564519214195 0.003599867482739812 -0.9748462542269359 0.0036143093269160485 -0.9748325147898698 -0.02420898691000794 -0.013778818780261234
182900000000.0 -0.024238233689345176 -0.013747151927125811 0.0027815406829086596 -0.9748480145254209 0.00279638190568293 -0.9748346774817092 -0.024228781566095467 -0.01375067166018323
183000000000.0 -0.024257747330295648 -0.013718638009917905 0.001963073231169984 -0.9748491266721044 0.0019783026633819144 -0.9748362035773883 -0.024248391232921895 -0.013722420838077228
183100000000.0 -0.024277067803634096 -0.013690025246419038 0.0011444661336708266 -0.9748495880812925 0.0011600722728234416 -0.9748370901823497 -0.024267815050772953 -0.013694068587874236
183200000000.0 -0.02429619435108083 -0.013661316120681818 0.00032572044085352165 -0.9748493961967186 0.0003416914596211541 -0.9748373344218716 -0.02428705219236388 -0.013665617190406815
183300000000.0 -0.024315126252404385 -0.013632513121347684 -0.0004931627535569969 -0.9748485484923627 -0.00047683899854554843 -0.9748369334421247 -0.024306101862824146 -0.013637068932931325
183400000000.0 -0.024333862825351986 -0.013603618741013805 -0.0013121823135884612 -0.9748470424732464 -0.001295518272698058 -0.974835884411204 -0.024324963299675668 -0.013608426108650729
183500000000.0 -0.024352403425566146 -0.013574635475606757 -0.0021313370620691034 -0.974844875676188 -0.0021143454833438716 -0.9748341845201374 -0.02434363577280203 -0.01357969101624313
183600000000.0 -0.02437074744648824 -0.013545565823761275 -0.0029506257816928117 -0.9748420456705345 -0.00293331970128646 -0.9748318309838694 -0.02436211858441037 -0.013550865959393999
183700000000.0 -0.024388894319256418 -0.013516412286203035 -0.0037700472160982533 -0.9748385500588519 -0.003752439948455646 -0.974828821042219 -0.024380411068989503 -0.013521953246330905
183800000000.0 -0.024406843512586693 -0.013487177365137338 -0.004589600070962328 -0.9748343864775909 -0.004571705198760186 -0.9748251519608152 -0.024398512593256556 -0.01349295518936226
183900000000.0 -0.024424594532644506 -0.013457863563645402 -0.005409283015104138 -0.9748295525977153 -0.0053911143789574486 -0.9748208210320035 -0.024416422556099226 -0.013463874104422319
184000000000.0 -0.024442146922907523 -0.013428473385082986 -0.006229094681601925 -0.9748240461252979 -0.006210666369545055 -0.9748158255757228 -0.024434140388512757 -0.013434712310616347
184100000000.0 -0.024459500264015735 -0.013399009332488615 -0.007049033668924099 -0.9748178648020824 -0.007030360005672751 -0.9748101629403672 -0.024451665553527 -0.013405472129773624
184200000000.0 -0.024476654173612104 -0.013369473907996542 -0.007869098542062641 -0.9748110064060141 -0.007850194078066147 -0.9748038305036051 -0.02446899754612871 -0.013376155886002732
184300000000.0 -0.024493608306173108 -0.013339869612256541 -0.008689287833681803 -0.974803468751734 -0.00867016733397311 -0.9747968256731828 -0.02448613589317943 -0.013346765905252064
184400000000.0 -0.02451036235282882 -0.013310198943860414 -0.009509600045271169 -0.9747952496910394 -0.00949027847812335 -0.9747891458876924 -0.024503080153324634 -0.013317304514874019
184500000000.0 -0.024526916041172648 -0.01328046439877576 -0.010330033648307337 -0.9747863471133101 -0.010310526173705042 -0.9747807886173144 -0.024519829916897946 -0.01328777404319462
184600000000.0 -0.024543269135064848 -0.013250668469787244 -0.011150587085420957 -0.9747767589459029 -0.011130909043355581 -0.9747717513645302 -0.024536384805821244 -0.013258176819087848
184700000000.0 -0.024559421434421986 -0.01322081364594388 -0.011971258771566434 -0.9747664831545062 -0.011951425670163556 -0.974762031664807 -0.024552744473495137 -0.01322851517155302
184800000000.0 -0.024575372775000985 -0.013190902412016835 -0.012792047095200446 -0.9747555177434651 -0.012772074598689438 -0.9747516270872498 -0.024568908604689646 -0.013198791429301016
184900000000.0 -0.024591123028173015 -0.01316093724796003 -0.013612950419457424 -0.9747438607560723 -0.013592854335991455 -0.9747405352352297 -0.02458487691542413 -0.013169007920338817
185000000000.0 -0.024606672100688072 -0.013130920628383225 -0.014433967083330971 -0.9747315102748186 -0.014413763352667221 -0.9747287537469738 -0.024600649152845835 -0.013139166971565377
185100000000.0 -0.024622019934433453 -0.0131008550220323 -0.015255095402856668 -0.9747184644216138 -0.01523480008390643 -0.9747162802961307 -0.024616225095102032 -0.013109270908370052
185200000000.0 -0.024637166506181793 -0.013070742891275152 -0.016076333672291117 -0.9747047213579745 -0.016055962930548687 -0.9747031125923041 -0.024631604551207283 -0.013079322054234602
185300000000.0 -0.02465211182733244 -0.013040586691598549 -0.016897680165290835 -0.9746902792851709 -0.016877250260151445 -0.9746892483815561 -0.02464678736090827 -0.013049322730342665
185400000000.0 -0.024666855943644896 -0.013010388871111993 -0.017719133136095036 -0.9746751364443486 -0.017698660408072005 -0.9746746854468759 -0.02466177339453911 -0.013019275255192309
185500000000.0 -0.02468139893496571 -0.012980151870062004 -0.018540690820695396 -0.9746592911166041 -0.01852019167854464 -0.974659421608624 -0.0246765625528789 -0.012989181944216721
185600000000.0 -0.024695740914947143 -0.012949878120351527 -0.01936235143800992 -0.9746427416230433 -0.019341842345775052 -0.9746434547249406 -0.024691154766999675 -0.012959045109405104
185700000000.0 -0.024709882030759085 -0.012919570045072692 -0.0201841131910489 -0.9746254863247854 -0.020163610655032797 -0.974626782692121 -0.024705549998114362 -0.012928867058935091
185800000000.0 -0.024723822462796065 -0.012889230058045731 -0.021005974268072648 -0.9746075236229518 -0.020985494823749735 -0.9746094034449674 -0.024719748237418262 -0.012898650096805778
185900000000.0 -0.024737562424376282 -0.012858860563366496 -0.02182793284374948 -0.9745888519586113 -0.02180749304262617 -0.9745913149571002 -0.02473374950592835 -0.012868396522477135
186000000000.0 -0.0247511021614342 -0.012828463954964777 -0.022649987080295482 -0.9745694698126954 -0.022629603476730726 -0.9745725152412441 -0.024747553854318424 -0.012838108630515706
186100000000.0 -0.024764441952210055 -0.012798042616171531 -0.023472135128614787 -0.97454937570588 -0.023451824266609692 -0.974553002349483 -0.024761161362751215 -0.012807788710245153
186200000000.0 -0.02477758210693028 -0.012767598919294338 -0.02429437512942625 -0.9745285681984354 -0.02427415352939462 -0.9745327743734765 -0.024774572140708113 -0.01277743904540174
186300000000.0 -0.024790522967486663 -0.01273713522520214 -0.025116705214379066 -0.9745070458900437 -0.025096589359908272 -0.9745118294446539 -0.02478778632681494 -0.012747061913794511
186400000000.0 -0.024803264907106815 -0.012706653882921961 -0.025939123507157394 -0.9744848074195852 -0.025919129831770416 -0.974490165734373 -0.024800804088664474 -0.012716659586973716
186500000000.0 -0.02481580833002137 -0.012676157229242048 -0.026761628124573306 -0.9744618514648927 -0.026741772998502566 -0.9744677814540471 -0.024813625622637902 -0.012686234329901147
186600000000.0 -0.024828153671129158 -0.012645647588324732 -0.027584217177645358 -0.9744381767424759 -0.02756451689462866 -0.9744446748552428 -0.024826251153722435 -0.012655788400626294
186700000000.0 -0.024840301395653866 -0.012615127271331723 -0.028406888772665385 -0.9744137820072131 -0.028387359536774216 -0.9744208442297457 -0.024838680935327682 -0.012625324049970438
186800000000.0 -0.02485225199880061 -0.012584598576055385 -0.02922964101224632 -0.974388666052017 -0.029210298924758224 -0.9743962879095969 -0.024850915249099118 -0.012594843521213244
186900000000.0 -0.024864006005406832 -0.012554063786562004 -0.03005247199635704 -0.9743628277074659 -0.030033333042680722 -0.9743710042670972 -0.02486295440472967 -0.012564349049785213
187000000000.0 -0.024875563969590068 -0.012523525172843492 -0.0308753798233392 -0.97433626584141 -0.03085645986000453 -0.9743449917147831 -0.024874798739768268 -0.012533842862966268
187100000000.0 -0.02488692647439399 -0.012492984990479225 -0.0316983625909094 -0.9743089793585515 -0.031679677332631814 -0.9743182487053722 -0.024886448619430335 -0.012503327179588504
187200000000.0 -0.024898094131430463 -0.012462445480306944 -0.03252141839713693 -0.9742809671999849 -0.032502983403966575 -0.9742907737316768 -0.024897904436402444 -0.01247280420974427
187300000000.0 -0.024909067580518987 -0.012431908868104176 -0.03334454534141003 -0.9742522283427286 -0.03332637600597714 -0.9742625653264935 -0.02490916661064772 -0.01244227615450005
187400000000.0 -0.024919847489324767 -0.012401377364278475 -0.0341677415253746 -0.9742227617992134 -0.034149853060240175 -0.9742336220624579 -0.024920235589209472 -0.012411745205614222
187500000000.0 -0.024930434552995318 -0.012370853163566634 -0.034991005053860685 -0.9741925666167532 -0.03497341247898261 -0.9742039425518724 -0.024931111846015312 -0.012381213545260372
187600000000.0 -0.024940829493791342 -0.0123403384447455 -0.03581433403577851 -0.9741616418769908 -0.03579705216610599 -0.9741735254465097 -0.024941795881675922 -0.012350683345756421
187700000000.0 -0.02495103306072369 -0.012309835370350363 -0.036637726585000495 -0.9741299866953137 -0.036620770018202166 -0.9741423694373819 -0.024952288223288384 -0.012320156769296672
187800000000.0 -0.02496104602918154 -0.012279346086402493 -0.03746118082121491 -0.974097600220252 -0.03744456392555493 -0.9741104732544851 -0.024962589424235876 -0.012289635967689817
187900000000.0 -0.024970869200563857 -0.012248872722148326 -0.03828469487075937 -0.9740644816328505 -0.03826843177312971 -0.9740778356665216 -0.0249727000639858 -0.012259123082102506
188000000000.0 -0.024980503401908997 -0.01221841738980585 -0.039108266867429305 -0.9740306301460163 -0.039092371441548264 -0.9740444554805849 -0.024982620747889626 -0.012228620242805664
188100000000.0 -0.024989949485525007 -0.01218798218432057 -0.03993189495326146 -0.9739960450038486 -0.03991638080804722 -0.9740103315418286 -0.024992352106982675 -0.012198129568926347
188200000000.0 -0.02499920832861754 -0.01215756918313246 -0.04075557727929126 -0.9739607254809454 -0.04074045774742147 -0.9739754627331049 -0.025001894797780172 -0.012167653168205509
188300000000.0 -0.025008280832920605 -0.012127180445948276 -0.041579312006286534 -0.973924670881689 -0.04156460013295324 -0.9739398479745766 -0.025011249502077615 -0.01213719313675608
188400000000.0 -0.025017167924325047 -0.01209681801452719 -0.04240309730545399 -0.9738878805395159 -0.04238880583732295 -0.9739034862233102 -0.025020416926748543 -0.012106751558831114
188500000000.0 -0.025025870552509707 -0.012066483912472696 -0.043226931359117086 -0.9738503538161624 -0.0432130727334987 -0.9738663764728384 -0.02502939780354258 -0.012076330506591498
188600000000.0 -0.02503438969057229 -0.012036180145033572 -0.04405081236136819 -0.9738120901009009 -0.04403739869561394 -0.9738285177527033 -0.02503819288888524 -0.01204593203987969
188700000000.0 -0.025042726334661158 -0.01200590869891324 -0.044874738518692385 -0.9737730888097483 -0.04486178159982062 -0.9737899091279753 -0.025046802963675403 -0.012015558205996547
188800000000.0 -0.025050881503609703 -0.011975671542090121 -0.04569870805056365 -0.9737333493846699 -0.04568621932512584 -0.9737505496987511 -0.0250552288330871 -0.011985211039484849
188900000000.0 -0.025058856238570373 -0.011945470623643074 -0.04652271919000915 -0.973692871292759 -0.04651070975420586 -0.9737104385996254 -0.02506347132636799 -0.01195489256191287
189000000000.0 -0.025066651602652232 -0.011915307873586654 -0.04734677018414842 -0.9736516540254087 -0.047335250774201296 -0.9736695749991505 -0.025071531296639606 -0.011924604781663324
189100000000.0 -0.02507426868055795 -0.011885185202716572 -0.048170859294699504 -0.9736096970974659 -0.04815984027748875 -0.973627958099265 -0.025079409620700783 -0.011894349693728972
189200000000.0 -0.02508170857822786 -0.011855104502457796 -0.04899498479845766 -0.9735670000463769 -0.048984476162434155 -0.9735855871347115 -0.025087107198829083 -0.011864129279504278
189300000000.0 -0.025088972422479556 -0.01182506764472745 -0.04981914498774164 -0.9735235624313169 -0.04980915633411806 -0.9735424613724295 -0.025094624954583065 -0.011833945506589819
189400000000.0 -0.025096061360655963 -0.011795076481799019 -0.05064333817080965 -0.973479383832314 -0.05063387870504189 -0.973498580110934 -0.025101963834608467 -0.01180380032859153
189500000000.0 -0.02510297656027225 -0.011765132846179412 -0.05146756267224523 -0.9734344638493605 -0.051458641195809625 -0.9734539426796756 -0.025109124808440162 -0.011773695684929534
189600000000.0 -0.025109719208669903 -0.011735238550489364 -0.05229181683331349 -0.9733888021015145 -0.05228344173578696 -0.9734085484383801 -0.025116108868313104 -0.011743633500645875
189700000000.0 -0.025116290512667977 -0.011705395387353493 -0.05311609901227945 -0.9733423982259994 -0.053108278263729505 -0.9733623967763798 -0.025122917028965557 -0.01171361568621722
189800000000.0 -0.025122691698223603 -0.011675605129296716 -0.053940407584706106 -0.9732952518772886 -0.05393314872839954 -0.9733154871119198 -0.02512955032745033 -0.011683644137370336
189900000000.0 -0.025128924010092018 -0.01164586952864724 -0.05476474094370549 -0.9732473627261905 -0.05475805108913813 -0.973267818891457 -0.025136009822944613 -0.011653720734898855
190000000000.0 -0.025134988711492876 -0.011616190317447232 -0.055589097500173684 -0.9731987304589291 -0.05558298331643136 -0.9732193915889467 -0.025142296596560636 -0.011623847344484834
190100000000.0 -0.025140887083777704 -0.011586569207367975 -0.05641347568298151 -0.9731493547762147 -0.05640794339243676 -0.9731702047051066 -0.025148411751159495 -0.011594025816520028
190200000000.0 -0.025146620426103848 -0.01155700788963388 -0.057237873939140066 -0.9730992353923184 -0.057232929311488163 -0.9731202577666789 -0.02515435641116359 -0.01156425798593183
190300000000.0 -0.025152190055111778 -0.011527508034951362 -0.058062290733931946 -0.9730483720341422 -0.05805793908057659 -0.9730695503256774 -0.025160131722375398 -0.01153454567201103
190400000000.0 -0.025157597304604554 -0.011498071293442476 -0.058886724551008275 -0.9729967644402866 -0.05888297071979766 -0.9730180819586204 -0.02516573885179261 -0.011504890678240126
190500000000.0 -0.025162843525236414 -0.011468699294587154 -0.059711173892458315 -0.9729444123601209 -0.0597080222627778 -0.9729658522657615 -0.025171178987427215 -0.01147529479212479
190600000000.0 -0.0251679300842004 -0.011439393647167496 -0.06053563727884077 -0.972891315552853 -0.060533091757069044 -0.9729128608703042 -0.02517645333812675 -0.011445759785027428
190700000000.0 -0.025172858364924278 -0.011410155939220677 -0.06136011324918785 -0.972837473786604 -0.06135817726451688 -0.9728591074176137 -0.0251815631333951 -0.011416287412001633
190800000000.0 -0.025177629766770376 -0.011380987737993785 -0.06218460036097703 -0.9727828868374803 -0.06218327686160462 -0.972804591574419 -0.02518650962321761 -0.011386879411627512
190900000000.0 -0.025182245704739568 -0.01135189058990654 -0.06300909719006667 -0.9727275544886568 -0.06300838863976009 -0.9727493130280107 -0.02519129407788464 -0.01135753750585108
191000000000.0 -0.025186707609181732 -0.011322866020516279 -0.06383360233060278 -0.9726714765294605 -0.06383351070564261 -0.9726932714854303 -0.025195917787820155 -0.01132826339982161
191100000000.0 -0.02519101692550894 -0.011293915534487373 -0.06465811439489733 -0.9726146527544595 -0.06465864118140097 -0.9726364666726572 -0.025200382063408536 -0.011299058781731751
191200000000.0 -0.025195175113915613 -0.011265040615567651 -0.06548263201326622 -0.9725570829625642 -0.06548377820489547 -0.9725788983337944 -0.02520468823482553 -0.011269925322659967
191300000000.0 -0.025199183649105197 -0.011236242726565288 -0.0663071538338486 -0.9724987669561287 -0.06630891992990305 -0.972520566230244 -0.02520883765187001 -0.01124086467641004
191400000000.0 -0.025203044020017468 -0.011207523309331537 -0.06713167852238172 -0.9724397045400716 -0.06713406452628112 -0.9724614701398908 -0.025212831683796174 -0.011211878479356289
191500000000.0 -0.02520675772956622 -0.01117888378474481 -0.0679562047619536 -0.9723798955209947 -0.06795921018011243 -0.9724016098562759 -0.025216671719150062 -0.011182968350283817
191600000000.0 -0.02521032629437974 -0.011150325552701807 -0.06878073125272664 -0.9723193397063209 -0.06878435509381972 -0.9723409851877755 -0.025220359165604323 -0.011154135890234859
191700000000.0 -0.025213751244547063 -0.011121849992107764 -0.06960525671162393 -0.9722580369034418 -0.06960949748624583 -0.9722795959567795 -0.02522389544979614 -0.011125382682351054
191800000000.0 -0.0252170341233701 -0.011093458460870634 -0.07042977987199173 -0.9721959869188769 -0.07043463559271308 -0.9722174419988683 -0.025227282017168087 -0.011096710291718144
191900000000.0 -0.02522017648712121 -0.011065152295899612 -0.07125429948322995 -0.9721331895574469 -0.07125976766504893 -0.9721545231619999 -0.025230520331806453 -0.01106812026521025
192000000000.0 -0.02522317990480629 -0.01103693281310276 -0.07207881431039556 -0.9720696446214602 -0.07208489197158519 -0.9720908393056893 -0.025233611876285405 -0.011039614131333381
192100000000.0 -0.02522604595793347 -0.011008801307389822 -0.07290332313377673 -0.9720053519099213 -0.07291000679713079 -0.9720263903002041 -0.02523655815150971 -0.011011193400070703
192200000000.0 -0.02522877624028711 -0.010980759052674559 -0.0737278247484395 -0.9719403112177429 -0.07373511044291324 -0.9719611760257549 -0.025239360676558725 -0.010982859562724587
192300000000.0 -0.025231372357707647 -0.010952807301880122 -0.07455231796374404 -0.9718745223349896 -0.07456020122649262 -0.9718951963716972 -0.025242020988533773 -0.010954614091762006
192400000000.0 -0.02523383592787814 -0.01092494728694393 -0.07537680160284053 -0.9718079850461263 -0.07538527748165133 -0.9718284512357418 -0.025244540642404105 -0.010926458440653972
192500000000.0 -0.025236168580112447 -0.01089718021882708 -0.07620127450213113 -0.9717406991292961 -0.07621033755825297 -0.971760940523165 -0.02524692121085594 -0.010898394043722389
192600000000.0 -0.025238371955155048 -0.010869507287519106 -0.07702573551071207 -0.9716726643556124 -0.07703537982207599 -0.9716926641460377 -0.02524916428414007 -0.01087042231597515
192700000000.0 -0.025240447704980445 -0.010841929662049886 -0.07785018348978726 -0.9716038804884718 -0.07786040265461777 -0.9716236220224541 -0.025251271469923925 -0.010842544652952304
192800000000.0 -0.025242397492602653 -0.010814448490497498 -0.07867461731205673 -0.9715343472828879 -0.07868540445287696 -0.9715538140757778 -0.025253244393142582 -0.010814762430562567
192900000000.0 -0.025244222991885862 -0.010787064899995818 -0.07949903586108756 -0.9714640644848513 -0.07951038362910487 -0.9714832402338957 -0.025255084695847998 -0.010787077004920716
193000000000.0 -0.025245925887365746 -0.010759779996745383 -0.0803234380306509 -0.971393031830705 -0.08033533861053331 -0.9714119004284824 -0.02525679403706547 -0.01075948971218703
193100000000.0 -0.02524750787406871 -0.010732594866022084 -0.08114782272404418 -0.9713212490465508 -0.08116026783907643 -0.9713397945942804 -0.025258374092642276 -0.010732001868401307
193200000000.0 -0.025248970657345 -0.010705510572183998 -0.08197218885339155 -0.9712487158476746 -0.08198516977100714 -0.9712669226683939 -0.025259826555104718 -0.010704614769317305
193300000000.0 -0.025250315952700667 -0.010678528158680423 -0.08279653533891958 -0.9711754319379988 -0.08281004287661269 -0.9711932845895895 -0.02526115313351081 -0.010677329690236308
193400000000.0 -0.0252515454856359 -0.010651648648057588 -0.08362086110821197 -0.9711013970095618 -0.08363488563981539 -0.9711188802976244 -0.025262355553303827 -0.010650147885837406
193500000000.0 -0.02525266099149024 -0.010624873041963297 -0.08444516509544982 -0.9710266107420189 -0.08445969655778529 -0.9710437097325788 -0.02526343555616775 -0.010623070590007718
193600000000.0 -0.02525366421529124 -0.010598202321151155 -0.08526944624062871 -0.9709510728021749 -0.08528447414051435 -0.970967772834209 -0.02526439489988158 -0.010596099015668964
193700000000.0 -0.025254556911607173 -0.01057163744548237 -0.08609370348875744 -0.9708747828435426 -0.08610921691037793 -0.9708910695413218 -0.02526523535817245 -0.010569234354603642
193800000000.0 -0.02525534084440709 -0.010545179353928107 -0.08691793578904539 -0.9707977405059283 -0.08693392340167196 -0.9708135997911588 -0.02526595872057174 -0.010542477777280717
193900000000.0 -0.025256017786921724 -0.0105188289645627 -0.08774214209406385 -0.9707199454150476 -0.08775859216012341 -0.970735363518806 -0.025266566792267235 -0.010515830432672854
194000000000.0 -0.02525658952151188 -0.010492587174565905 -0.08856632135890115 -0.9706413971821682 -0.0885832217423873 -0.970656360656618 -0.02526706139395823 -0.01048929344808235
194100000000.0 -0.025257057839539243 -0.010466454860210094 -0.08939047254029846 -0.9705620954037856 -0.08940781071551787 -0.9705765911336657 -0.02526744436170624 -0.010462867928952645
194200000000.0 -0.02525742454124372 -0.010440432876856354 -0.09021459459577177 -0.9704820396613241 -0.09023235765642146 -0.9704960548752022 -0.025267717546789484 -0.010436554958687574
194300000000.0 -0.025257691435619806 -0.01041452205893853 -0.09103868648272385 -0.9704012295208749 -0.09105686115129194 -0.9704147518021504 -0.02526788281555268 -0.010410355598463369
194400000000.0 -0.025257860340303015 -0.010388723219949372 -0.0918627471575387 -0.9703196645329591 -0.09188131979502254 -0.9703326818306138 -0.025267942049257527 -0.010384270887038154
194500000000.0 -0.025257933081456255 -0.01036303715242296 -0.09268677557467389 -0.9702373442323262 -0.0927057321906069 -0.9702498448714076 -0.025267897143932617 -0.010358301840562032
194600000000.0 -0.025257911493659368 -0.010337464627912116 -0.0935107706857364 -0.9701542681377824 -0.09353009694851824 -0.9701662408296133 -0.02526775001022052 -0.010332449452382096
194700000000.0 -0.025257797419803545 -0.010312006396962023 -0.09433473143854698 -0.9700704357520523 -0.09435441268607145 -0.9700818696041587 -0.025267502573225582 -0.010306714692845723
194800000000.0 -0.02525759271098903 -0.01028666318908329 -0.09515865677620579 -0.9699858465616722 -0.09517867802677228 -0.9699967310874188 -0.02526715677235672 -0.010281098509101722
194900000000.0 -0.02525729922642449 -0.010261435712717745 -0.09598254563614157 -0.9699005000369164 -0.09600289159964953 -0.969910825164844 -0.025266714561172562 -0.010255601824898895
195000000000.0 -0.02525691883332886 -0.010236324655200276 -0.0968063969491636 -0.9698143956317592 -0.0968270520385763 -0.9698241517146123 -0.02526617790722109 -0.010230225540381064
195100000000.0 -0.025256453406838953 -0.010211330682720465 -0.09763020963849706 -0.9697275327838647 -0.09765115798157069 -0.969736710607307 -0.025265548791880643 -0.010204970531882296
195200000000.0 -0.025255904829915715 -0.01018645444027441 -0.09845398261882649 -0.969639910914616 -0.09847520807009182 -0.9696485017056189 -0.025264829210196283 -0.010179837651715408
195300000000.0 -0.025255274993252506 -0.010161696551615062 -0.09927771479532847 -0.969551529429175 -0.09929920094831843 -0.9695595248640796 -0.025264021170712955 -0.010154827727959788
195400000000.0 -0.02525456579519026 -0.010137057619199311 -0.10010140506270553 -0.969462387716578 -0.1001231352624214 -0.9694697799288158 -0.02526312669531033 -0.010129941564250362
195500000000.0 -0.02525377914162798 -0.010112538224126787 -0.10092505230421707 -0.9693724851498602 -0.10094700965981745 -0.9693792667373324 -0.025262147819029444 -0.010105179939556206
195600000000.0 -0.02525291694593873 -0.010088138926076283 -0.10174865539071169 -0.9692818210862246 -0.10177082278842492 -0.9692879851183293 -0.025261086589901775 -0.010080543607963465
195700000000.0 -0.02525198112888685 -0.0100638602632378 -0.10257221317966118 -0.9691903948672349 -0.10259457329590041 -0.9691959348915343 -0.025259945068770717 -0.010056033298452687
195800000000.0 -0.025250973618543265 -0.010039702752235464 -0.1033957245141947 -0.9690982058190486 -0.1034182598288755 -0.9691031158675767 -0.025258725329113406 -0.010031649714672903
195900000000.0 -0.02524989635020497 -0.010015666888051987 -0.10421918822213817 -0.9690052532526805 -0.10424188103218138 -0.9690095278478786 -0.025257429456856665 -0.010007393534716007
196000000000.0 -0.02524875126631321 -0.009991753143940825 -0.10504260311505656 -0.9689115364643054 -0.10506543554807157 -0.9689151706245837 -0.02525605955019077 -0.00998326541088517
196100000000.0 -0.025247540316371386 -0.009967961971339498 -0.10586596798730129 -0.968817054735591 -0.10588892201543323 -0.9688200439805086 -0.025254617719379358 -0.009959265969464075
196200000000.0 -0.025246265456867017 -0.009944293799771811 -0.10668928161506787 -0.9687218073340661 -0.10671233906900615 -0.9687241476891263 -0.025253106086565086 -0.009935395810480864
196300000000.0 -0.025244928651186743 -0.009920749036749405 -0.10751254275545204 -0.968625793513525 -0.10753568533858289 -0.968627481514581 -0.025251526785571257 -0.00991165550747278
196400000000.0 -0.02524353186953732 -0.00989732806766408 -0.10833575014552478 -0.9685290125144594 -0.10835895944821933 -0.9685300452117264 -0.025249881961699496 -0.009888045607244347
196500000000.0 -0.02524207708886264 -0.009874031255677417 -0.10915890250141151 -0.9684314635645351 -0.10918216001543865 -0.9684318385261989 -0.025248173771523896 -0.009864566629628112
196600000000.0 -0.02524056629275961 -0.009850858941604748 -0.10998199851737983 -0.968333145879089 -0.11000528565043367 -0.9683328611945189 -0.02524640438267664 -0.009841219067240142
196700000000.0 -0.02523900147139537 -0.00982781144378924 -0.1108050368649438 -0.9682340586616712 -0.11082833495527283 -0.9682331129442232 -0.025244575973635646 -0.0098180033852325
196800000000.0 -0.025237384621419848 -0.009804889057977488 -0.1116280161919788 -0.9681342011046127 -0.11165130652310344 -0.9681325934940223 -0.02524269073350106 -0.009794920021047492
196900000000.0 -0.025235717745878787 -0.009782092057182931 -0.11245093512184644 -0.9680335723896294 -0.11247419893736205 -0.9680313025539954 -0.025240750861769752 -0.009771969384166272
197000000000.0 -0.025234002854124946 -0.009759420691548882 -0.11327379225254204 -0.9679321716884567 -0.11329701077098443 -0.967929239825809 -0.025238758568104622 -0.009749151855858822
197100000000.0 -0.025232241961724328 -0.009736875188201561 -0.11409658615585011 -0.9678299981635173 -0.11411974058562029 -0.9678264050029671 -0.02523671607209734 -0.009726467788927596
197200000000.0 -0.02523043709036286 -0.009714455751100587 -0.11491931537652006 -0.96772705096862 -0.11494238693085455 -0.9677227977710923 -0.025234625603024943 -0.009703917507455685
197300000000.0 -0.025228590267749342 -0.009692162560882593 -0.11574197843146067 -0.9676233292496919 -0.11576494834343201 -0.967618417808237 -0.025232489399604048 -0.009681501306546268
197400000000.0 -0.025226703527514657 -0.00966999577469963 -0.11656457380894886 -0.9675188321455384 -0.11658742334649082 -0.9675132647852219 -0.02523030970973541 -0.009659219452068346
197500000000.0 -0.025224778909108604 -0.009647955526052503 -0.11738709996786592 -0.9674135587886351 -0.11740981044880738 -0.9674073383660038 -0.02522808879024429 -0.009637072180395119
197600000000.0 -0.025222818457693162 -0.00962604192461762 -0.11820955533694383 -0.9673075083059504 -0.11823210814403895 -0.9673006382080771 -0.025225828906615334 -0.009615059698143068
197700000000.0 -0.02522082422402975 -0.00960425505606919 -0.11903193831404281 -0.9672006798197966 -0.11905431490998933 -0.9671931639629006 -0.025223532332717815 -0.009593182181911053
197800000000.0 -0.02521879826436434 -0.00958259498189684 -0.1198542472654457 -0.9670930724487093 -0.1198764292078763 -0.9670849152763512 -0.025221201350528334 -0.009571439778017384
197900000000.0 -0.025216742640310767 -0.009561061739216005 -0.12067648052517893 -0.9669846853083578 -0.12069844948161378 -0.9669758917892145 -0.025218838249845568 -0.009549832602236321
198000000000.0 -0.025214659418721353 -0.009539655340575935 -0.12149863639435457 -0.9668755175124776 -0.12152037415710597 -0.966866093137692 -0.02521644532799527 -0.009528360739534954
198100000000.0 -0.025212550671563583 -0.009518375773759875 -0.12232071314054245 -0.966765568173838 -0.12234220164155626 -0.966755518953947 -0.025214024889535294 -0.00950702424380695
198200000000.0 -0.025210418475780344 -0.009497223001581456 -0.12314270899716181 -0.9666548364052275 -0.12316393032278623 -0.966644168866674 -0.025211579245944287 -0.009485823137609154
198300000000.0 -0.025208264913152742 -0.009476196961677353 -0.1239646221629068 -0.9665433213204713 -0.12398555856857588 -0.966532042501692 -0.025209110715310457 -0.009464757411896162
198400000000.0 -0.025206092070154375 -0.009455297566294542 -0.12478645080119671 -0.9664310220354729 -0.12480708472601555 -0.9664191394825722 -0.02520662162201114 -0.009443827025755526
198500000000.0 -0.025203902037799895 -0.009434524702070525 -0.12560819303965168 -0.9663179376692744 -0.12562850712087348 -0.9663054594312863 -0.025204114296382703 -0.009423031906142873
198600000000.0 -0.025201696911485688 -0.009413878229813983 -0.12642984696960646 -0.9662040673451471 -0.12644982405698962 -0.9661910019688831 -0.025201591074385202 -0.00940237194761718
198700000000.0 -0.025199478790827234 -0.009393357984277562 -0.12725141064564507 -0.9660894101917038 -0.1272710338156758 -0.9660757667161897 -0.02519905429725847 -0.009381847012078743
198800000000.0 -0.025197249779488413 -0.009372963773925994 -0.1280728820851722 -0.965973965344026 -0.128092134655146 -0.9659597532945423 -0.02519650631117126 -0.00936145692850369
198900000000.0 -0.025195011985001348 -0.009352695380705024 -0.12889425926801532 -0.965857731944824 -0.12891312480996023 -0.9658429613265357 -0.025193949466859267 -0.009341201492685192
199000000000.0 -0.025192767518582997 -0.00933255255979953 -0.1297155401360564 -0.965740709145606 -0.12973400249049305 -0.9657253904367994 -0.025191386119259952 -0.009321080466968813
199100000000.0 -0.025190518494943054 -0.009312535039395822 -0.13053672259290566 -0.965622896107872 -0.13055476588242412 -0.9656070402527999 -0.025188818627135828 -0.009301093579997446
199200000000.0 -0.025188267032080852 -0.009292642520432003 -0.13135780450359605 -0.9655042920043283 -0.13137541314624832 -0.9654879104056611 -0.025186249352690124 -0.009281240526448995
199300000000.0 -0.02518601525108074 -0.009272874676354011 -0.13217878369432265 -0.9653848960201105 -0.13219594241681346 -0.9653680005310117 -0.025183680661174154 -0.009261520966784445
199400000000.0 -0.025183765275893676 -0.009253231152862218 -0.132999657952214 -0.9652647073540362 -0.13301635180287752 -0.965247310269853 -0.025181114920488416 -0.009241934526991942
199500000000.0 -0.02518151923311184 -0.009233711567657382 -0.13382042502513802 -0.9651437252198599 -0.13383663938669665 -0.9651258392694442 -0.025178554500769335 -0.00922248079833502
199600000000.0 -0.025179279251737217 -0.009214315510184886 -0.13464108262154695 -0.9650219488475539 -0.13465680322363452 -0.9650035871842152 -0.02517600177397573 -0.009203159337104054
199700000000.0 -0.025177047462939053 -0.009195042541374324 -0.13546162841035675 -0.9648993774845928 -0.13547684134179974 -0.9648805536766927 -0.02517345911345899 -0.009183969664369735
199800000000.0 -0.025174825999801635 -0.00917589219338037 -0.13628206002086557 -0.9647760103972592 -0.13629675174171013 -0.9647567384184503 -0.025170928893528843 -0.00916491126573954
199900000000.0 -0.025172616997066386 -0.00915686396931979 -0.1371023750427089 -0.9646518468719548 -0.13711653239598431 -0.9646321410910726 -0.02516841348901036 -0.009145983591118194
200000000000.0 -0.025170422590860442 -0.009137957343006264 -0.13792257102585584 -0.9645268862165267 -0.13793618124906454 -0.96450676138714 -0.025165915274789508 -0.009127186054470562
200100000000.0 -0.025168244918417893 -0.009119171758684047 -0.13874264548063978 -0.9644011277615969 -0.13875569621696304 -0.9643805990112287 -0.025163436625351324 -0.009108518033587169
200200000000.0 -0.02516608611779187 -0.009100506630763406 -0.13956259587783326 -0.9642745708619092 -0.13957507518704534 -0.9642536536809293 -0.025160979914309822 -0.009089978869858057
200300000000.0 -0.025163948327555787 -0.009081961343551532 -0.14038241964875958 -0.9641472148976737 -0.14039431601783667 -0.9641259251278743 -0.025158547513928948 -0.009071567868045579
200400000000.0 -0.025161833686493724 -0.009063535250985764 -0.14120211418544495 -0.9640190592759244 -0.1412134165388655 -0.9639974130987891 -0.025156141794632075 -0.009053284296066303
200500000000.0 -0.025159744333282944 -0.009045227676364998 -0.14202167684081154 -0.9638901034318783 -0.1420323745505328 -0.9638681173565484 -0.02515376512450725 -0.00903512738477335
200600000000.0 -0.0251576824061638 -0.009027037912081053 -0.14284110492891017 -0.9637603468302997 -0.14285118782401768 -0.9637380376812481 -0.025151419868797643 -0.009017096327747087
200700000000.0 -0.025155650042599696 -0.009008965219352589 -0.14366039572519707 -0.963629788966867 -0.14366985410121488 -0.9636071738712918 -0.025149108389386818 -0.008999190281090266
200800000000.0 -0.025153649378928684 -0.008991008827957118 -0.14447954646684671 -0.9634984293695419 -0.1444883710947026 -0.9634755257444829 -0.025146833044275913 -0.008981408363228055
200900000000.0 -0.02515168254999947 -0.008973167935966293 -0.14529855435311148 -0.9633662675999362 -0.14530673648774503 -0.9633430931391299 -0.02514459618704698 -0.008963749654713483
201000000000.0 -0.02514975168880234 -0.00895544170948057 -0.14611741654571705 -0.9632333032546804 -0.14612494793432992 -0.9632098759151602 -0.025142400166323308 -0.008946213198041479
201100000000.0 -0.02514785892608539 -0.00893782928236731 -0.14693613016930632 -0.9630995359667938 -0.14694300305923932 -0.9630758739552424 -0.025140247325216636 -0.00892879799746686
201200000000.0 -0.025146006389960493 -0.008920329755999795 -0.14775469231191785 -0.962964965407039 -0.1477608994581541 -0.9629410871659118 -0.02513814000076616 -0.008911503018829193
201300000000.0 -0.02514419620549799 -0.008902942198999092 -0.14857310002551435 -0.9628295912852886 -0.14857863469779553 -0.9628055154787073 -0.02513608052337012 -0.008894327189386158
201400000000.0 -0.025142430494311144 -0.008885665646978534 -0.14939135032654308 -0.9626934133518746 -0.1493962063160997 -0.9626691588513115 -0.0251340712162073 -0.008877269397653704
201500000000.0 -0.02514071137412863 -0.008868499102291488 -0.15020944019654822 -0.9625564313989362 -0.15021361182242815 -0.9625320172686934 -0.02513211439464989 -0.008860328493251813
201600000000.0 -0.02513904095835542 -0.008851441533780934 -0.15102736658281862 -0.9624186452617554 -0.15103084869781735 -0.9623940907442522 -0.025130212365669397 -0.008843503286759917
201700000000.0 -0.02513742135562252 -0.008834491876537207 -0.15184512639907893 -0.9622800548200904 -0.15184791439525852 -0.9622553793209719 -0.025128367427230385 -0.008826792549581701
201800000000.0 -0.025135854669326427 -0.008817649031653534 -0.15266271652622332 -0.9621406599994926 -0.1526648063400179 -0.9621158830725651 -0.025126581867678674 -0.008810195013815244
201900000000.0 -0.02513434299715513 -0.008800911865991008 -0.15348013381309117 -0.9620004607726123 -0.15348152192999365 -0.9619756021046263 -0.02512485796512132 -0.008793709372132377
202000000000.0 -0.025132888430603167 -0.008784279211947528 -0.15429737507728328 -0.9618594571604981 -0.15429805853610737 -0.961834536555778 -0.025123197986793754 -0.008777334277671585
202100000000.0 -0.025131493054475835 -0.008767749867229516 -0.15511443710601724 -0.9617176492338723 -0.15511441350273064 -0.9616926865988179 -0.025121604188425323 -0.008761068343931448
202200000000.0 -0.02513015894638317 -0.008751322594630946 -0.15593131665702858 -0.9615750371144012 -0.1559305841481555 -0.9615500524418629 -0.02512007881359148 -0.008744910144682231
202300000000.0 -0.025128888176220252 -0.008734996121820762 -0.156748010459509 -0.9614316209759406 -0.15674656776509285 -0.9614066343294846 -0.02511862409306108 -0.008728858213883339
202400000000.0 -0.025127682805634897 -0.008718769141131807 -0.1575645152150883 -0.9612874010457698 -0.1575623616212154 -0.9612624325438451 -0.025117242244132833 -0.008712911045609997
202500000000.0 -0.025126544887488375 -0.008702640309358836 -0.1583808275988494 -0.9611423776058038 -0.15837796295973156 -0.9611174474058243 -0.025115935469966273 -0.008697067093991937
202600000000.0 -0.02512547646530182 -0.00868660824756645 -0.15919694426039352 -0.9609965509937862 -0.15919336899999934 -0.9609716792761352 -0.025114705958905897 -0.008681324773164653
202700000000.0 -0.025124479572690622 -0.008670671540897878 -0.16001286182493596 -0.9608499216044606 -0.16000857693817902 -0.9608251285564396 -0.025113555883794103 -0.008665682457225059
202800000000.0 -0.025123556232789706 -0.008654828738398505 -0.16082857689444527 -0.9607024898907217 -0.16082358394791652 -0.9606777956904446 -0.02511248740128096 -0.008650138480206898
202900000000.0 -0.025122708457666797 -0.008639078352843792 -0.16164408604882097 -0.9605542563647402 -0.16163838718107132 -0.9605296811649948 -0.025111502651124416 -0.00863469113606218
203000000000.0 -0.02512193824772375 -0.008623418860575521 -0.16245938584710626 -0.9604052215990626 -0.1624529837684735 -0.9603807855111482 -0.025110603755484184 -0.008619338678653691
203100000000.0 -0.02512124759108814 -0.008607848701350736 -0.16327447282873903 -0.9602553862276919 -0.16326737082072018 -0.9602311093052459 -0.025109792818208913 -0.00860407932176548
203200000000.0 -0.025120638462994074 -0.008592366278194735 -0.16408934351484458 -0.9601047509471313 -0.16408154542901093 -0.9600806531699567 -0.02510907192411826 -0.008588911239117616
203300000000.0 -0.02512011282515016 -0.008576969957269498 -0.1649039944095575 -0.9599533165174072 -0.16489550466601513 -0.9599294177753182 -0.025108443138273644 -0.008573832564402166
203400000000.0 -0.025119672625100283 -0.008561658067746312 -0.16571842200138476 -0.9598010837630625 -0.1657092455867754 -0.9597774038397536 -0.025107908505250978 -0.008558841391322703
203500000000.0 -0.02511931979557113 -0.008546428901695637 -0.16653262276459851 -0.9596480535741158 -0.16652276522964785 -0.9596246121310741 -0.025107470048399347 -0.008543935773656527
203600000000.0 -0.025119056253810067 -0.008531280713981742 -0.16734659316066908 -0.9594942269069913 -0.16733606061727602 -0.959471043467464 -0.025107129769099217 -0.008529113725322583
203700000000.0 -0.025118883900914483 -0.008516211722172142 -0.16816032963972818 -0.9593396047854205 -0.16814912875760207 -0.9593166987184442 -0.025106889646014516 -0.008514373220466722
203800000000.0 -0.025118804621148526 -0.008501220106458861 -0.16897382864206437 -0.9591841883013037 -0.168961966644908 -0.9591615788058161 -0.02510675163433529 -0.008499712193561968
203900000000.0 -0.025118820281251807 -0.008486304009588462 -0.16978708659965386 -0.9590279786155403 -0.1697745712608949 -0.9590056847045835 -0.025106717665022163 -0.008485128539517453
204000000000.0 -0.02511893272973957 -0.008471461536809149 -0.17060009993771688 -0.9588709769588252 -0.1705869395757911 -0.9588490174438543 -0.025106789644041696 -0.00847062011380904
204100000000.0 -0.025119143796190346 -0.00845669075582578 -0.17141286507631234 -0.9587131846324071 -0.17139906854949932 -0.9586915781077152 -0.02510696945159711 -0.008456184732618175
204200000000.0 -0.025119455290527334 -0.00844198969677374 -0.17222537843195335 -0.9585546030088085 -0.1722109551327685 -0.9585333678360825 -0.02510725894135753 -0.008441820172990628
204300000000.0 -0.025119869002290234 -0.008427356352200018 -0.17303763641926043 -0.9583952335325097 -0.17302259626840624 -0.958374387825528 -0.02510765993968198 -0.008427524173005935
204400000000.0 -0.02512038669989699 -0.008412788677063666 -0.17384963545263254 -0.9582350777205916 -0.17383398889251375 -0.9582146393300816 -0.0251081742448374 -0.008413294431966154
204500000000.0 -0.025121010129899472 -0.008398284588745366 -0.1746613719479554 -0.9580741371633418 -0.17464512993575917 -0.9580541236619973 -0.025108803626220675 -0.008399128610595078
204600000000.0 -0.02512174101622954 -0.008383841967076859 -0.1754728423243253 -0.9579124135248134 -0.17545601632467475 -0.9578928421925008 -0.025109549823567716 -0.008385024331259528
204700000000.0 -0.02512258105943774 -0.008369458654381672 -0.17628404300580527 -0.9577499085433487 -0.17626664498298722 -0.9577307963525012 -0.025110414546168018 -0.008370979178202136
204800000000.0 -0.02512353193592463 -0.008355132455530304 -0.177094970423202 -0.9575866240320576 -0.17707701283297606 -0.9575679876332724 -0.025111399472073963 -0.008356990697788565
204900000000.0 -0.02512459529716412 -0.008340861138017387 -0.17790562101586613 -0.9574225618792492 -0.17788711679685992 -0.9574044175871068 -0.0251125062473078 -0.008343056398779485
205000000000.0 -0.025125772768921372 -0.008326642432043644 -0.1787159912335124 -0.9572577240488259 -0.17869695379820927 -0.9572400878279342 -0.02511373648506621 -0.008329173752607145
205100000000.0 -0.025127065950462657 -0.008312474030625561 -0.1795260775380626 -0.957092112580628 -0.17950652076338552 -0.9570750000319055 -0.025115091764926958 -0.008315340193678238
205200000000.0 -0.025128476413760436 -0.008298353589714603 -0.1803358764055055 -0.9569257295907333 -0.1803158146230069 -0.9569091559379473 -0.02511657363205107 -0.00830155311968976
205300000000.0 -0.02513000570268964 -0.0082842787283353 -0.18114538432777966 -0.9567585772717093 -0.18112483231344137 -0.9567425573482768 -0.025118183596385676 -0.008287809891961507
205400000000.0 -0.025131655332223935 -0.008270247028739568 -0.181954597814666 -0.9565906578928234 -0.18193357077831715 -0.9565752061288841 -0.025119923131868525 -0.008274107835785924
205500000000.0 -0.025133426787620122 -0.008256256036581271 -0.18276351339570276 -0.9564219738001978 -0.18274202697006312 -0.9564071042099757 -0.025121793675628525 -0.008260444240797584
205600000000.0 -0.025135321523602833 -0.008242303261103565 -0.1835721276221121 -0.9562525274169228 -0.18355019785146812 -0.9562382535863814 -0.02512379662719083 -0.008246816361355332
205700000000.0 -0.025137340963543035 -0.00822838617534922 -0.18438043706873772 -0.9560823212431178 -0.18435808039726012 -0.9560686563179244 -0.025125933347680793 -0.008233221416947475
205800000000.0 -0.0251394864986309 -0.008214502216384714 -0.18518843833600435 -0.9559113578559446 -0.1851656715957135 -0.955898314529749 -0.02512820515903065 -0.008219656592608917
205900000000.0 -0.025141759487048897 -0.008200648785547883 -0.18599612805187193 -0.9557396399095689 -0.18597296845026273 -0.9557272304126143 -0.025130613343184505 -0.008206119039362332
206000000000.0 -0.025144161253137707 -0.008186823248709191 -0.18680350287381547 -0.9555671701350742 -0.18677996798114826 -0.9555554062231423 -0.02513315914131003 -0.008192605874672309
206100000000.0 -0.02514669308656233 -0.008173022936554386 -0.1876105594908039 -0.9553939513403213 -0.18758666722707001 -0.9553828442840251 -0.02513584375301011 -0.008179114182917738
206200000000.0 -0.025149356241474338 -0.008159245144887214 -0.18841729462528903 -0.955219986409762 -0.18839306324686408 -0.9552095469841959 -0.02513866833553729 -0.008165641015886339
206300000000.0 -0.025152151935671226 -0.008145487134950087 -0.18922370503519803 -0.9550452783041952 -0.1891991531211875 -0.9550355167789495 -0.02514163400301184 -0.008152183393282855
206400000000.0 -0.0251550813497589 -0.008131746133763398 -0.19002978751593322 -0.9548698300604754 -0.19000493395422585 -0.9548607561900313 -0.02514474182564509 -0.008138738303256572
206500000000.0 -0.025158145626306683 -0.008118019334488389 -0.1908355389023712 -0.9546936447911676 -0.190810402875405 -0.9546852678056673 -0.025147992828963465 -0.008125302702949642
206600000000.0 -0.025161345869005747 -0.008104303896805581 -0.19164095607086917 -0.9545167256841519 -0.19161555704112532 -0.954509054280567 -0.025151387993041202 -0.00811187351905964
206700000000.0 -0.025164683141828553 -0.008090596947316085 -0.1924460359412639 -0.9543390760021685 -0.19242039363649652 -0.9543321183358675 -0.02515492825173495 -0.008098447648423447
206800000000.0 -0.025168158468185264 -0.008076895579962818 -0.19325077547887642 -0.9541606990823212 -0.1932249098770895 -0.9541544627590424 -0.025158614491925163 -0.008085021958618266
206900000000.0 -0.02517177283008333 -0.008063196856472466 -0.19405517169650746 -0.953981598335517 -0.19402910301069123 -0.9539760904037602 -0.025162447552764568 -0.008071593288582134
207000000000.0 -0.02517552716728744 -0.00804949780681547 -0.19485922165643937 -0.9538017772458591 -0.1948329703190776 -0.9537970041896986 -0.025166428224928136 -0.008058158449249784
207100000000.0 -0.02517942237648353 -0.008035795429691458 -0.1956629224724168 -0.9536212393699866 -0.1956365091197744 -0.9536172071023125 -0.025170557249877337 -0.008044714224211387
207200000000.0 -0.02518345931044088 -0.008022086693031111 -0.19646627131163819 -0.9534399883363553 -0.1964397167678443 -0.9534367021925528 -0.025174835319125545 -0.00803125737038539
207300000000.0 -0.025187638777181196 -0.008008368534521755 -0.19726926539672643 -0.9532580278444733 -0.19724259065766303 -0.9532554925765453 -0.02517926307351128 -0.008017784618712815
207400000000.0 -0.025191961539151066 -0.007994637862152737 -0.19807190200769303 -0.9530753616640778 -0.19804512822470105 -0.9530735814352107 -0.025183841102485574 -0.008004292674867488
207500000000.0 -0.0251964283123945 -0.007980891554782456 -0.1988741784838964 -0.9528919936342612 -0.1988473269473142 -0.9528909720138526 -0.02518856994340063 -0.007990778219986125
207600000000.0 -0.02520103976573326 -0.007967126462726631 -0.19967609222597818 -0.9527079276625429 -0.19964918434852158 -0.9527076676216807 -0.025193450080810083 -0.007977237911416283
207700000000.0 -0.02520579651995275 -0.00795333940836743 -0.200477640697796 -0.9525231677238891 -0.20045069799779558 -0.9525236716312995 -0.02519848194578189 -0.00796366838348131
207800000000.0 -0.025210699146990704 -0.007939527186784768 -0.20127882142833306 -0.9523377178596801 -0.20125186551284066 -0.9523389874781423 -0.025203665915216146 -0.0079500662482654
207900000000.0 -0.025215748169133023 -0.00792568656640685 -0.20207963201359516 -0.952151582176627 -0.20205268456137088 -0.9521536186598587 -0.02520900231117527 -0.007936428096413187
208000000000.0 -0.025220944058218956 -0.007911814289685765 -0.20288007011848685 -0.9519647648456289 -0.2028531528628839 -0.951967568735654 -0.025214491400228273 -0.007922750497951927
208100000000.0 -0.025226287234848443 -0.007897907073790286 -0.20368013347867003 -0.9517772701005883 -0.20365326819042617 -0.9517808413255782 -0.025220133392798782 -0.007909030003126736
208200000000.0 -0.025231778067600626 -0.007883961611323246 -0.20447981990240238 -0.95158910223717 -0.2044530283723545 -0.9515934401097697 -0.02522592844253294 -0.007895263143256418
208300000000.0 -0.025237416872261192 -0.00786997457105807 -0.2052791272723496 -0.9514002656115055 -0.2052524312940835 -0.9514053688276478 -0.025231876645674167 -0.007881446431605196
208400000000.0 -0.025243203911056077 -0.007855942598698602 -0.20607805354737832 -0.9512107646388557 -0.2060514748998279 -0.9512166312770598 -0.02523797804045308 -0.007867576364273106
208500000000.0 -0.025249139391894927 -0.007841862317657242 -0.2068765967643208 -0.9510206037922138 -0.20685015719433025 -0.9510272313133751 -0.025244232606488396 -0.007853649421101228
208600000000.0 -0.02525522346762659 -0.0078277303298574 -0.2076747550397124 -0.9508297876008638 -0.20764847624457494 -0.9508371728485357 -0.025250640264202907 -0.007839662066596628
208700000000.0 -0.02526145623530486 -0.007813543216555635 -0.20847252657150786 -0.950638320648889 -0.2084464301814952 -0.9506464598500564 -0.025257200874255408 -0.007825610750872623
208800000000.0 -0.02526783773546143 -0.007799297539183319 -0.20926990964075648 -0.9504462075736324 -0.20924401720165242 -0.9504550963399767 -0.025263914236980947 -0.007811491910604727
208900000000.0 -0.02527436795139512 -0.007784989840211666 -0.21006690261325925 -0.9502534530641062 -0.21004123556891194 -0.9502630863937681 -0.025270780091853105 -0.007797301970004804
209000000000.0 -0.025281046808471746 -0.007770616644036472 -0.2108635039411841 -0.9500600618593585 -0.21083808361608988 -0.9500704341391889 -0.025277798116956622 -0.007783037341810953
209100000000.0 -0.025287874173434657 -0.007756174457882302 -0.21165971216465557 -0.9498660387467878 -0.2116345597465898 -0.9498771437550952 -0.025284967928476964 -0.007768694428291511
209200000000.0 -0.025294849853732943 -0.007741659772729425 -0.21245552591330333 -0.9496713885604158 -0.2124306624360109 -0.9496832194702067 -0.025292289080208592 -0.007754269622267883
209300000000.0 -0.025301973596859463 -0.007727069064258226 -0.21325094390777893 -0.9494761161791138 -0.21322639023373843 -0.9494886655618208 -0.025299761063075948 -0.007739759308149294
209400000000.0 -0.02530924508970448 -0.007712398793815697 -0.2140459649612355 -0.9492802265247829 -0.21402174176451189 -0.9492934863544847 -0.02530738330467409 -0.007725159862985084
209500000000.0 -0.025316663957925516 -0.0076976454094018565 -0.2148405879807652 -0.9490837245604953 -0.21481671572996394 -0.949097686218623 -0.02531515516882625 -0.007710467657531971
209600000000.0 -0.025324229765331413 -0.007682805346674054 -0.21563481196880369 -0.948886615288585 -0.21561131091014044 -0.9489012695691131 -0.025323075955158505 -0.007695679057333741
209700000000.0 -0.025331942013282996 -0.007667875029972761 -0.21642863602448567 -0.948688903748704 -0.21640552616498604 -0.9487042408638263 -0.025331144898693807 -0.0076807904238179025
209800000000.0 -0.025339800140109798 -0.007652850873364198 -0.21722205934496516 -0.9484905950158339 -0.21719936043580615 -0.948506604602114 -0.02533936116946443 -0.007665798115403471
209900000000.0 -0.025347803520545522 -0.007637729281704489 -0.21801508122669053 -0.9482916941982593 -0.2179928127467001 -0.9483083653232599 -0.025347723872143433 -0.0076506984886254795
210000000000.0 -0.02535595146517902 -0.00762250665172069 -0.21880770106663255 -0.9480922064354965 -0.21878588220595854 -0.948109527604879 -0.025356232045695242 -0.007635487899270325
210100000000.0 -0.025364243219925066 -0.00760717937311033 -0.21959991836346923 -0.9478921368961973 -0.21957856800743292 -0.9479100960612884 -0.025364884663046205 -0.00762016270352543
210200000000.0 -0.025372677965513245 -0.007591743829659601 -0.22039173271872795 -0.9476914907759987 -0.2203708694318733 -0.94771007534182 -0.025373680630777554 -0.007604719259140842
210300000000.0 -0.02538125481699666 -0.007576196400378918 -0.22118314383787024 -0.9474902732953491 -0.22116278584822435 -0.9475094701291039 -0.02538261878883533 -0.007589153926603567
210400000000.0 -0.02538997282327944 -0.007560533460655712 -0.22197415153133893 -0.9472884896972984 -0.2219543167148959 -0.9473082851373097 -0.025391697910263744 -0.007573463070323751
210500000000.0 -0.02539883096666656 -0.00754475138342343 -0.2227647557155467 -0.947086145245246 -0.22274546158098682 -0.9471065251103408 -0.025400916700960566 -0.007557643059830568
210600000000.0 -0.025407828162432297 -0.007528846540351106 -0.2235549564138184 -0.9468832452206687 -0.22353622008747717 -0.9469041948200023 -0.02541027379945319 -0.0075416902709844035
210700000000.0 -0.025416963258410922 -0.007512815303042129 -0.22434475375728508 -0.9466797949208059 -0.22432659196838353 -0.9467012990641196 -0.025419767776695565 -0.007525601087191397
210800000000.0 -0.025426235034610098 -0.007496654044257235 -0.22513414798571318 -0.9464757996563246 -0.22511657705186247 -0.9464978426646284 -0.025429397135889903 -0.00750937190063735
210900000000.0 -0.025435642202844277 -0.007480359139145342 -0.22592313944829606 -0.946271264748947 -0.225906175261288 -0.9462938304656227 -0.025439160312331874 -0.007492999113524034
211000000000.0 -0.025445183406394192 -0.007463926966494676 -0.22671172860438102 -0.946066195529057 -0.22669538661627728 -0.9460892673313711 -0.025449055673273525 -0.007476479139318729
211100000000.0 -0.025454857219687627 -0.007447353909997549 -0.22749991602414196 -0.9458605973332784 -0.22748421123367368 -0.9458841581442995 -0.025459081517817856 -0.007459808404013496
211200000000.0 -0.025464662148002665 -0.007430636359526615 -0.22828770238919832 -0.9456544755020255 -0.2282726493284871 -0.9456785078029357 -0.025469236076830607 -0.007442983347389138
211300000000.0 -0.025474596627199225 -0.007413770712428819 -0.22907508849318037 -0.9454478353770361 -0.22906070121479244 -0.9454723212198287 -0.025479517512879093 -0.00742600042429137
211400000000.0 -0.025484659023469 -0.007396753374828656 -0.2298620752422273 -0.9452406822988764 -0.2298483673065734 -0.9452656033194315 -0.025489923920192753 -0.0074088561059106805
211500000000.0 -0.025494847633118572 -0.007379580762947598 -0.23064866365543815 -0.945033021604428 -0.23063564811852694 -0.945058359035955 -0.025500453324654133 -0.007391546881072469
211600000000.0 -0.025505160682370243 -0.007362249304435484 -0.23143485486525822 -0.9448248586243599 -0.2314225442668173 -0.9448505933111986 -0.02551110368380746 -0.007374069257533835
211700000000.0 -0.025515596327194256 -0.007344755439709254 -0.23222065011780182 -0.9446161986805685 -0.23220905646977422 -0.9446423110923384 -0.025521872886898198 -0.007356419763281346
211800000000.0 -0.025526152653163218 -0.007327095623310216 -0.2330060507731258 -0.9444070470836204 -0.23299518554855375 -0.9444335173297086 -0.02553275875493477 -0.007338594947842681
211900000000.0 -0.025536827675339126 -0.007309266325264957 -0.23379105830543334 -0.9441974091301679 -0.2337809324277383 -0.9442242169745434 -0.025543759040777405 -0.007320591383594807
212000000000.0 -0.02554761933817859 -0.007291264032462317 -0.23457567430322046 -0.9439872901003498 -0.23456629813588917 -0.9440144149766949 -0.02555487142925186 -0.007302405667084082
212100000000.0 -0.025558525515474984 -0.007273085250035091 -0.23535990046935962 -0.943776695255189 -0.2353512838060451 -0.9438041162823367 -0.025566093537291334 -0.007284034420344676
212200000000.0 -0.025569544010322586 -0.00725472650275515 -0.23614373862111993 -0.9435656298339755 -0.23613589067616803 -0.9435933258316397 -0.025577422914101235 -0.0072654742922244634
212300000000.0 -0.025580672555110054 -0.007236184336432084 -0.23692719069012866 -0.9433540990516331 -0.2369201200895363 -0.943382048556423 -0.025588857041354874 -0.007246721959709879
212400000000.0 -0.025591908811543326 -0.007217455319326025 -0.23771025872226748 -0.9431421080960956 -0.23770397349508232 -0.9431702893777982 -0.025600393333411808 -0.0072277741292587315
212500000000.0 -0.025603250370697175 -0.007198536043561721 -0.23849294487750486 -0.9429296621256597 -0.23848745244767547 -0.9429580532037832 -0.025612029137565658 -0.0072086275381292786
212600000000.0 -0.025614694753096533 -0.00717942312655185 -0.23927525142966483 -0.9427167662663445 -0.23927055860834684 -0.9427453449269072 -0.025623761734318903 -0.007189278955711947
212700000000.0 -0.025626239408823262 -0.007160113212429606 -0.24005718076613478 -0.9425034256092446 -0.24005329374446152 -0.9425321694217962 -0.025635588337681623 -0.007169725184867072
212800000000.0 -0.025637881717660523 -0.007140602973477701 -0.24083873538750583 -0.9422896452078837 -0.24083565972983043 -0.9423185315427479 -0.025647506095503037 -0.007149963063251453
212900000000.0 -0.02564961898925834 -0.0071208891115746385 -0.2416199179071516 -0.9420754300755652 -0.24161765854476733 -0.9421044361212898 -0.025659512089826735 -0.0071299894646586525
213000000000.0 -0.025661448463336952 -0.007100968359632768 -0.24240073105074048 -0.9418607851827322 -0.24239929227608475 -0.9418898879637335 -0.02567160333727285 -0.007109801300344735
213100000000.0 -0.025673367309914392 -0.007080837483048979 -0.2431811776556856 -0.9416457154543229 -0.2431805631170349 -0.9416748918487097 -0.02568377678945174 -0.007089395520362465
213200000000.0 -0.025685372629571032 -0.0070604932811533985 -0.24396126067052987 -0.9414302257671363 -0.24396147336719012 -0.9414594525247056 -0.02569602933340107 -0.007068769114887432
213300000000.0 -0.025697461453737736 -0.007039932588661121 -0.24474098315426468 -0.9412143209472044 -0.2447420254322617 -0.9412435747075864 -0.02570835779205401 -0.00704791911554326
213400000000.0 -0.025709630745024956 -0.007019152277127313 -0.2455203482755873 -0.9409980057671733 -0.24552222182386452 -0.9410272630781162 -0.025720758924734452 -0.007026842596724316
213500000000.0 -0.02572187739757146 -0.0069981492564000275 -0.24629935931209226 -0.9407812849436921 -0.24630206515921696 -0.9408105222794758 -0.02573322942767721 -0.0070055366769120825
213600000000.0 -0.025734198237434367 -0.006976920476075444 -0.247078019649398 -0.9405641631348161 -0.24708155816078176 -0.9405933569147741 -0.025745765934582117 -0.006983998519988947
213700000000.0 -0.02574659002300742 -0.006955462926950891 -0.24785633278021135 -0.9403466449374248 -0.2478607036558503 -0.9403757715445646 -0.02575836501719179 -0.0069622253365452455
213800000000.0 -0.025759049445467405 -0.006933773642478926 -0.24863430230332578 -0.9401287348846492 -0.24863950457605818 -0.9401577706843578 -0.025771023185895768 -0.006940214385181853
213900000000.0 -0.025771573129259092 -0.0069118497002156444 -0.24941193192255906 -0.9399104374433248 -0.24941796395684962 -0.9399393588021365 -0.0257837368903684 -0.006917962973804492
214000000000.0 -0.0257841576326081 -0.006889688223269836 -0.25018922544562516 -0.9396917570114526 -0.2501960849368742 -0.9397205403158759 -0.025796502520230708 -0.006895468460912693
214100000000.0 -0.02579679944806537 -0.006867286381746624 -0.25096618678294436 -0.93947269791569 -0.2509738707573247 -0.9395013195910721 -0.025809316405739358 -0.006872728256879722
214200000000.0 -0.025809495003085246 -0.006844641394186521 -0.2517428199463901 -0.9392532644088568 -0.2517513247612144 -0.9392817009382693 -0.025822174818506755 -0.006849739825224381
214300000000.0 -0.025822240660638377 -0.006821750529001787 -0.25251912904797447 -0.9390334606674663 -0.252528450392594 -0.9390616886106045 -0.025835073972247206 -0.006826500683874667
214400000000.0 -0.02583503271985003 -0.006798611105905066 -0.2532951182984712 -0.9388132907892811 -0.2533052511957044 -0.9388412868013558 -0.025848010023548744 -0.006803008406420753
214500000000.0 -0.025847867416677814 -0.006775220497330579 -0.2540707920059808 -0.9385927587908967 -0.25408173081407526 -0.9386204996415047 -0.025860979072678546 -0.006779260623357534
214600000000.0 -0.025860740924615946 -0.006751576129853277 -0.25484615457442716 -0.938371868605352 -0.2548578929895535 -0.9383993311973112 -0.02587397716440686 -0.006755255023319166
214700000000.0 -0.025873649355437713 -0.0067276754855914635 -0.2556212105020033 -0.9381506240797631 -0.25563374156128 -0.9381777854679013 -0.025887000288868263 -0.006730989354295333
214800000000.0 -0.025886588759963382 -0.0067035161036111115 -0.2563959643795502 -0.9379290289730047 -0.2564092804645991 -0.9379558663828774 -0.02590004438244202 -0.006706461424845765
214900000000.0 -0.025899555128865163 -0.006679095581310175 -0.25717042088888387 -0.9377070869534037 -0.25718451372991574 -0.9377335777999353 -0.02591310532866424 -0.006681669105290484
215000000000.0 -0.025912544393503434 -0.006654411575801893 -0.2579445848010565 -0.9374848015964804 -0.2579594454814829 -0.9375109235025105 -0.025926178959165196 -0.006656610328896568
215100000000.0 -0.025925552426793168 -0.006629461805280211 -0.25871846097456785 -0.9372621763827249 -0.25873407993613884 -0.9372879071974423 -0.025939261054633803 -0.006631283093043908
215200000000.0 -0.02593857504410302 -0.006604244050378536 -0.2594920543535119 -0.9370392146953979 -0.25950842140197766 -0.9370645325126528 -0.02595234734580805 -0.006605685460381114
215300000000.0 -0.02595160800418846 -0.006578756155512563 -0.2602653699656785 -0.9368159198183874 -0.2602824742769685 -0.936840802994863 -0.02596543351449262 -0.006579815559962604
215400000000.0 -0.02596464701015277 -0.006552996030210889 -0.26103841292058794 -0.9365922949340946 -0.261056243047509 -0.9366167221073236 -0.025978515194603025 -0.006553671588372538
215500000000.0 -0.02597768771044033 -0.006526961650432697 -0.2618111884074806 -0.9363683431213627 -0.2618297322869258 -0.9363922932275769 -0.0259915879732321 -0.006527251810830958
215600000000.0 -0.025990725699865113 -0.006500651059869867 -0.26258370169325074 -0.9361440673534496 -0.26260294665391765 -0.9361675196452451 -0.026004647391748507 -0.006500554562283414
215700000000.0 -0.02600375652066483 -0.006474062371233285 -0.2633559581203241 -0.9359194704960444 -0.2633758908909375 -0.9359424045598498 -0.02601768894691367 -0.006473578248472139
215800000000.0 -0.026016775663589366 -0.00644719376752326 -0.2641279631044935 -0.9356945553053316 -0.26414856982252494 -0.9357169510786639 -0.026030708092028752 -0.006446321346990404
215900000000.0 -0.026029778569017892 -0.006420043503283272 -0.264899722132694 -0.9354693244260969 -0.2649209883535759 -0.9354911622145926 -0.02604370023810366 -0.006418782408316074
216000000000.0 -0.026042760628108057 -0.006392609905835319 -0.2656712407607349 -0.9352437803898874 -0.2656931514675636 -0.9352650408840913 -0.02605666075505229 -0.006390960056828699
216100000000.0 -0.02605571718397416 -0.006364891376497393 -0.2664425246109866 -0.9350179256132157 -0.266465064224704 -0.9350385899051179 -0.026069584972910537 -0.006362852991802527
216200000000.0 -0.02606864353289505 -0.006336886391780973 -0.2672135793700115 -0.9347917623958181 -0.2672367317600628 -0.9348118119951244 -0.026082468183076895 -0.006334459988382084
216300000000.0 -0.026081534925551993 -0.006308593504570444 -0.26798441078615703 -0.9345652929189661 -0.2680081592816173 -0.9345847097690833 -0.026095305639581446 -0.006305779898537388
216400000000.0 -0.026094386568296737 -0.006280011345279098 -0.2687550246671044 -0.934338519243824 -0.26877935206826326 -0.9343572857375542 -0.02610809256037221 -0.006276811651992746
216500000000.0 -0.02610719362444458 -0.006251138622986187 -0.269525426877367 -0.9341114433098703 -0.26955031546776803 -0.9341295423047968 -0.026120824128626277 -0.006247554257139108
216600000000.0 -0.02611995121560124 -0.006221974126548831 -0.2702956233357553 -0.9338840669333667 -0.27032105489467784 -0.9339014817669189 -0.026133495494085196 -0.006218006801917571
216700000000.0 -0.026132654423014236 -0.006192516725697108 -0.2710656200127955 -0.9336563918058874 -0.27109157582817484 -0.933673106310073 -0.026146101774409347 -0.006188168454686934
216800000000.0 -0.026145298288950902 -0.006162765372096362 -0.2718354229281119 -0.933428419492908 -0.27186188380988496 -0.9334444180086976 -0.026158638056554447 -0.006158038465058902
216900000000.0 -0.026157877818109257 -0.006132719100395694 -0.27260503814777093 -0.9332001514324446 -0.2726319844416396 -0.9332154188238035 -0.02617109939817055 -0.006127616164715923
217000000000.0 -0.02617038797904757 -0.006102377029242159 -0.2733744717815855 -0.9329715889337652 -0.2734018833831902 -0.9329861106013072 -0.026183480829019553 -0.006096900968199938
217100000000.0 -0.02618282370564983 -0.006071738362275686 -0.27414372998039094 -0.9327427331761505 -0.2741715863498809 -0.9327564950704166 -0.026195777352415368 -0.006065892373676315
217200000000.0 -0.026195179898607587 -0.006040802389095358 -0.2749128189332804 -0.932513585207723 -0.27494109911027276 -0.9325265738420626 -0.02620798394668015 -0.00603458996367434
217300000000.0 -0.026207451426933225 -0.0060095684861985405 -0.27568174486480956 -0.9322841459443346 -0.27571042748372726 -0.9322963484073857 -0.026220095566622716 -0.006002993405797247
217400000000.0 -0.02621963312949811 -0.005978036117893585 -0.2764505140321767 -0.9320544161685214 -0.2764795773379511 -0.9320658201362718 -0.02623210714503501 -0.005971102453409239
217500000000.0 -0.02623171981659077 -0.005946204837181362 -0.27721913272236476 -0.9318243965285202 -0.27724855458649444 -0.931834990275944 -0.02624401359420462 -0.005938916946290686
217600000000.0 -0.026243706271504207 -0.005914074286614107 -0.27798760724925964 -0.9315940875373503 -0.27801736518621667 -0.9316038599496071 -0.026255809807448623 -0.005906436811271277
217700000000.0 -0.026255587252142918 -0.005881644199114731 -0.2787559439507453 -0.9313634895719616 -0.27878601513470835 -0.9313724301551517 -0.026267490660660663 -0.005873662062826724
217800000000.0 -0.026267357492655255 -0.005848914398779124 -0.2795241491857702 -0.9311326028724491 -0.27955451046768076 -0.9311407017639083 -0.026279051013877196 -0.005840592803657215
217900000000.0 -0.026279011705083767 -0.005815884801633482 -0.2802922293313918 -0.9309014275413353 -0.28032285725632017 -0.9309086755194662 -0.026290485712857605 -0.00580722922522508
218000000000.0 -0.02629054458104247 -0.005782555416372199 -0.2810601907797994 -0.9306699635429184 -0.28109106160460096 -0.9306763520365472 -0.026301789590682675 -0.005773571608271955
218100000000.0 -0.02630195079341189 -0.005748926345057304 -0.2818280399353192 -0.9304382107026918 -0.2818591296465783 -0.9304437317999396 -0.026312957469365978 -0.005739620323302589
218200000000.0 -0.026313224998053778 -0.005714997783785975 -0.28259578321140094 -0.930206168706831 -0.2826270675436403 -0.9302108151634942 -0.02632398416147551 -0.005705375831034556
218300000000.0 -0.026324361835549728 -0.005680770023328515 -0.2833634270275857 -0.9299738371017485 -0.28339488148173236 -0.9299776023491808 -0.02633486447178048 -0.005670838682825526
218400000000.0 -0.026335355932951027 -0.005646243449727448 -0.28413097780645935 -0.929741215293722 -0.28416257766855485 -0.9297440934462048 -0.02634559319889633 -0.00563600952105913
218500000000.0 -0.026346201905555963 -0.00561141854486748 -0.2848984419705992 -0.9295083025485922 -0.2849301623307347 -0.9295102884101927 -0.02635616513695385 -0.005600889079508613
218600000000.0 -0.026356894358698715 -0.005576295887007689 -0.28566582593949796 -0.9292750979915293 -0.28569764171096534 -0.9292761870624363 -0.026366575077274506 -0.005565478183662277
218700000000.0 -0.026367427889556393 -0.005540876151279384 -0.28643313612649146 -0.9290416006068727 -0.2864650220651352 -0.9290417890892037 -0.02637681781005795 -0.005529777751018417
218800000000.0 -0.026377797088973823 -0.0055051601101497654 -0.2872003789356659 -0.9288078092380421 -0.2872323096594172 -0.9288070940411151 -0.026386888126080164 -0.005493788791349486
218900000000.0 -0.026387996543301838 -0.0054691486338449445 -0.28796756075876706 -0.9285737225875198 -0.28799951076735264 -0.9285721013325849 -0.026396780818401702 -0.005457512406929375
219000000000.0 -0.026398020836252357 -0.005432842690743374 -0.2887346879721048 -0.928339339216907 -0.2887666316669093 -0.9283368102413322 -0.02640649068408469 -0.0054209497927321685
219100000000.0 -0.02640786455076304 -0.005396243347726177 -0.2895017669334499 -0.9281046575470463 -0.2895336786375187 -0.9281012199079531 -0.026416012525916435 -0.005384102236594107
219200000000.0 -0.026417522270884557 -0.005359351770492908 -0.29026880397893445 -0.9278696758582269 -0.2903006579571033 -0.9278653293355706 -0.026425341154147387 -0.005346971119342197
219300000000.0 -0.026426988583668525 -0.005322169223839794 -0.2910358054199523 -0.9276343922904506 -0.2910675758990873 -0.9276291373895396 -0.026434471388227576 -0.005309557914891119
219400000000.0 -0.026436258081073697 -0.0052846970718959385 -0.2918027775400632 -0.927398804843782 -0.29183443872939513 -0.9273926427972335 -0.02644339805855349 -0.005271864190300675
219500000000.0 -0.026445325361885166 -0.005246936778327503 -0.2925697265918957 -0.927162911378759 -0.29260125270343473 -0.9271558441478925 -0.026452116008223617 -0.005233891605806107
219600000000.0 -0.026454185033636314 -0.0052088899064958805 -0.2933366587940662 -0.9269267096168847 -0.29336802406307894 -0.9269187398925411 -0.026460620094792914 -0.005195641914806431
219700000000.0 -0.026462831714546574 -0.005170558119582897 -0.2941035803280943 -0.9266901971411928 -0.2941347590336297 -0.9266813283439835 -0.02646890519203649 -0.005157116963823987
219800000000.0 -0.026471260035464076 -0.005131943180670626 -0.294870497335341 -0.9264533713968743 -0.29490146382078913 -0.9264436076768566 -0.026476966191713608 -0.005118318692423691
219900000000.0 -0.026479464641816476 -0.0050930469527853 -0.29563741591394566 -0.9262162296919879 -0.2956681446076119 -0.9262055759277662 -0.026484798005337467 -0.005079249133100392
220000000000.0 -0.02648744019556936 -0.005053871398899459 -0.29640434211578576 -0.9259787691982396 -0.2964348075514632 -0.9259672309954858 -0.026492395565943627 -0.005039910411129736
220100000000.0 -0.026495181377188246 -0.005014418581894398 -0.29717128194344605 -0.9257409869518257 -0.2972014587809776 -0.9257285706412276 -0.026499753829863488 -0.005000304744385905
220200000000.0 -0.02650268288760879 -0.004974690664478475 -0.29793824134720825 -0.9255028798543616 -0.2979681043930098 -0.9254895924889901 -0.02650686777849433 -0.004960434443114812
220300000000.0 -0.02650993945020771 -0.0049346899090717995 -0.2987052262220575 -0.9252644446738656 -0.29873475044959874 -0.9252502940259645 -0.02651373242007353 -0.0049203019096868365
220400000000.0 -0.026516945812777252 -0.004894418677640474 -0.2994722424047082 -0.925025678045829 -0.29950140297492744 -0.9250106726030312 -0.026520342791446935 -0.0048799096382982805
220500000000.0 -0.026523696749506723 -0.0048538794314979304 -0.30023929567065566 -0.9247865764743419 -0.30026806795229355 -0.9247707254353054 -0.026526693959842067 -0.004839260214647377
220600000000.0 -0.026530187062956224 -0.00481307473105759 -0.30100639173124494 -0.9245471363332992 -0.30103475132108304 -0.9245304496027721 -0.02653278102463137 -0.0047983563155680805
220700000000.0 -0.02653641158604074 -0.004772007235550222 -0.30177353623077585 -0.924307353867671 -0.3018014589737631 -0.9242898420509839 -0.026538599119098605 -0.004757200708633521
220800000000.0 -0.026542365184005125 -0.004730679702693781 -0.3025407347436223 -0.9240672251948417 -0.30256819675287056 -0.9240488995918271 -0.026544143412197088 -0.004715796251716386
220900000000.0 -0.026548042756403076 -0.004689094988325793 -0.3033079927713916 -0.9238267463060195 -0.30333497044803054 -0.9238076189043701 -0.026549409110304775 -0.004674145892520914
221000000000.0 -0.026553439239073794 -0.0046472560459918846 -0.3040753157401064 -0.9235859130677084 -0.30410178579297537 -0.923565996535765 -0.026554391458976426 -0.004632252668073582
221100000000.0 -0.026558549606110544 -0.004605165926489685 -0.3048427089974254 -0.9233447212232524 -0.30486864846258993 -0.9233240289022363 -0.02655908574468295 -0.004590119704177804
221200000000.0 -0.02656336887183 -0.004562827777377383 -0.3056101778098937 -0.923103166394443 -0.30563556406996945 -0.9230817122901309 -0.026563487296551065 -0.004547750214838501
221300000000.0 -0.02656789209273419 -0.004520244842430977 -0.3063777273602294 -0.92286124408319 -0.3064025381634986 -0.9228390428570378 -0.0265675914880898 -0.004505147501641159
221400000000.0 -0.026572114369465893 -0.004477420461070811 -0.30714536274464893 -0.9226189496732599 -0.3071695762239541 -0.9225960166329804 -0.026571393738911323 -0.004462314953107505
221500000000.0 -0.026576030848758477 -0.004434358067731341 -0.3079130889702293 -0.922376278432074 -0.3079366836616271 -0.9223526295216744 -0.026574889516440617 -0.004419256044000308
221600000000.0 -0.026579636725376207 -0.004391061191204874 -0.3086809109523133 -0.9221332255125759 -0.308703865813475 -0.9221088773018591 -0.026578074337616064 -0.004375974334608775
221700000000.0 -0.0265829272440476 -0.0043475334539311026 -0.30944883351195157 -0.9218897859551485 -0.30947112794029275 -0.9218647556286877 -0.026580943770580182 -0.004332473469986318
221800000000.0 -0.02658589770138559 -0.004303778571247524 -0.31021686137339455 -0.9216459546896038 -0.3102384752239236 -0.9216202600351938 -0.026583493436355646 -0.004288757179156148
221900000000.0 -0.02658854344779934 -0.004259800350605702 -0.3109849991616258 -0.9214017265372269 -0.3110059127644883 -0.9213753859338232 -0.026585719010510114 -0.004244829274288526
222000000000.0 -0.026590859889394157 -0.004215602690732435 -0.3117532513999401 -0.9211570962128767 -0.31177344557765385 -0.9211301286180253 -0.026587616224810165 -0.004200693649830507
222100000000.0 -0.026592842489857438 -0.0041711895807634925 -0.31252162250757326 -0.9209120583271475 -0.3125410785919323 -0.9208844832639173 -0.026589180868858572 -0.004156354281615556
222200000000.0 -0.026594486772331772 -0.004126565099323612 -0.31329011679737784 -0.9206666073885833 -0.31330881664601357 -0.9206384449320084 -0.026590408791716345 -0.004111815225925344
222300000000.0 -0.026595788321272247 -0.004081733413574239 -0.3140587384735535 -0.9204207378059525 -0.31407666448613947 -0.9203920085689923 -0.026591295903511784 -0.004067080618524926
222400000000.0 -0.026596742784290472 -0.004036698778215795 -0.3148274916294248 -0.9201744438905695 -0.3148446267635109 -0.9201451690095969 -0.02659183817703209 -0.004022154673662586
222500000000.0 -0.02659734587397858 -0.0039914655344513664 -0.3155963802452745 -0.9199277198586755 -0.3156127080317359 -0.9198979209785019 -0.026592031649296386 -0.003977041683036199
222600000000.0 -0.026597593369717672 -0.003946038108907298 -0.31636540818623315 -0.9196805598338654 -0.31638091274432245 -0.9196502590923152 -0.0265918724231128 -0.003931746014722889
222700000000.0 -0.026597481119469902 -0.0039004210125184336 -0.3171345792002224 -0.9194329578495678 -0.3171492452522096 -0.919402177861608 -0.026591356668617793 -0.0038862721120817307
222800000000.0 -0.02659700504154517 -0.0038546188393682387 -0.3179038969159558 -0.9191849078515715 -0.31791770980134515 -0.9191536716930133 -0.02659048062479297 -0.0038406244926161522
222900000000.0 -0.026596161126353886 -0.0038086362654922196 -0.318673364840999 -0.9189364037006038 -0.3186863105303086 -0.9189047348913802 -0.02658924060096433 -0.0037948077468106132
223000000000.0 -0.0265949454381367 -0.003762478047643013 -0.31944298635989055 -0.9186874391749481 -0.31945505146798436 -0.9186553616619864 -0.02658763297828314 -0.0037488265369318126
223100000000.0 -0.02659335411666622 -0.003716149022014605 -0.32021276473231797 -0.9184380079731079 -0.320223936531276 -0.9184055461128043 -0.02658565421117672 -0.0037026855957976767
223200000000.0 -0.02659138337893603 -0.0036696541029292325 -0.3209827030913664 -0.9181881037165209 -0.3209929695228828 -0.9181552822568303 -0.026583300828787997 -0.0036563897255174563
223300000000.0 -0.026589029520816678 -0.003622998281486086 -0.3217528044418143 -0.917937719952303 -0.3217621541291123 -0.917904564014457 -0.026580569436384736 -0.0036099437961976556
223400000000.0 -0.02658628891869232 -0.003576186624173942 -0.3225230716585141 -0.9176868501560402 -0.3225314939177638 -0.9176533852159076 -0.02657745671674816 -0.0035633527446210954
223500000000.0 -0.026583158031067 -0.0035292242714454144 -0.3232935074848141 -0.9174354877346175 -0.3233009923360474 -0.9174017396037165 -0.026573959431534417 -0.003516621572894691
223600000000.0 -0.02657963340015082 -0.0034821164362524664 -0.3240641145310689 -0.9171836260290804 -0.32407065270857766 -0.917149620835262 -0.026570074422618575 -0.0034697553470629614
223700000000.0 -0.026575711653409394 -0.0034348684025531664 -0.32483489527319964 -0.9169312583175393 -0.32484047823540513 -0.9168970224853493 -0.026565798613399964 -0.0034227591957027266
223800000000.0 -0.02657138950509414 -0.0033874855237731078 -0.3256058520513284 -0.9166783778180975 -0.3256104719901202 -0.9166439380488386 -0.026561129010095486 -0.003375638308477054
223900000000.0 -0.026566663757737082 -0.0033399732212406716 -0.32637698706848817 -0.916424977691823 -0.3263806369180138 -0.9163903609433208 -0.026556062702995577 -0.003328397934671482
224000000000.0 -0.02656153130361881 -0.003292336982583691 -0.3271483023893864 -0.9161710510457385 -0.3271509758342892 -0.91613628451184 -0.02655059686769792 -0.0032810433816960467
224100000000.0 -0.026555989126203126 -0.0032445823600916464 -0.3279197999392549 -0.9159165909358478 -0.3279214914223501 -0.9158817020256558 -0.026544728766310855 -0.0032335800135619365
224200000000.0 -0.026550034301542447 -0.003196714969047166 -0.32869148150275973 -0.9156615903701877 -0.32869218623213864 -0.9156266066870499 -0.026538455748628027 -0.003186013249333991
224300000000.0 -0.026543663999648814 -0.0031487404860246837 -0.32946334872298744 -0.9154060423119019 -0.3294630626785454 -0.915370991632175 -0.02653177525327508 -0.0031383485615540056
224400000000.0 -0.02653687548583149 -0.0031006646471566012 -0.33023540310050126 -0.9151499396823426 -0.330234123039878 -0.9151148499339384 -0.026524684808822044 -0.0030905914746405493
224500000000.0 -0.02652966612200159 -0.0030524932463654973 -0.33100764599247423 -0.9148932753641896 -0.331005369456406 -0.9148581746049278 -0.026517182034871186 -0.00304274756326212
224600000000.0 -0.026522033367941844 -0.0030042321335733836 -0.33178007861188935 -0.9146360422045898 -0.3317768039289589 -0.9146009586003673 -0.026509264643108897 -0.0029948224506903065
224700000000.0 -0.026513974782539047 -0.0029558872128738036 -0.3325527020268163 -0.9143782330183202 -0.3325484283176 -0.9143431948211151 -0.02650093043832737 -0.0029468218071244784
224800000000.0 -0.02650548802498269 -0.0029074644406781635 -0.33332551715976855 -0.914119840590958 -0.3333202443403736 -0.9140848761166893 -0.026492177319413605 -0.0028987513479960566
224900000000.0 -0.026496570855923298 -0.0028589698238341383 -0.3340985247871208 -0.9138608576820713 -0.33409225357210837 -0.9138259952883215 -0.0264830032803058 -0.0028506168322512794
225000000000.0 -0.026487221138596646 -0.0028104094177163743 -0.33487172553861794 -0.9136012770284224 -0.33486445744330373 -0.9135665450920503 -0.026473406410915012 -0.002802424060610901
225100000000.0 -0.026477436839904573 -0.002761789324289298 -0.33564511989694623 -0.9133410913471774 -0.33563685723908054 -0.9133065182418322 -0.026463384898015144 -0.0027541788738092957
225200000000.0 -0.026467216031463073 -0.0027131156901443305 -0.3364187081973871 -0.9130802933391267 -0.33640945409820655 -0.9130459074126808 -0.026452937026095885 -0.002705887150813283
225300000000.0 -0.02645655689060601 -0.002664394704515101 -0.33719249062754536 -0.9128188756919163 -0.33718224901219257 -0.9127847052438376 -0.02644206117818349 -0.0026575548070231643
225400000000.0 -0.02644545770134796 -0.00261563259726579 -0.33796646722715235 -0.912556831083279 -0.33795524282446415 -0.9125229043419549 -0.026430755836622476 -0.002609187792453892
225500000000.0 -0.02643391685530851 -0.0025668356368522133 -0.3387406378879455 -0.9122941521842691 -0.3387284362296032 -0.9122604972843056 -0.026419019583823634 -0.0025607920898937575
225600000000.0 -0.026421932852595406 -0.002518010128272583 -0.33951500235362486 -0.9120308316624992 -0.33950182977266985 -0.9119974766220099 -0.026406851102977896 -0.002512373713057219
225700000000.0 -0.02640950430264095 -0.0024691624109823697 -0.34028956021988394 -0.9117668621853817 -0.34027542384859244 -0.9117338348832824 -0.02639424917872648 -0.002463938704707668
225800000000.0 -0.02639662992500186 -0.002420298856798167 -0.34106431093451894 -0.9115022364233585 -0.3410492187016388 -0.9114695645766897 -0.026381212697803157 -0.002415493134773987
225900000000.0 -0.026383308550110188 -0.002371425867779936 -0.34183925379761515 -0.9112369470531319 -0.3418232144249608 -0.9112046581944239 -0.026367740649630003 -0.0023670430984494657
226000000000.0 -0.026369539119983482 -0.002322549874090185 -0.342614387961802 -0.91097098676089 -0.3425974109602125 -0.9109391082155897 -0.02635383212688158 -0.0023185947142726412
226100000000.0 -0.0263553206888906 -0.0022736773318419268 -0.34338971243259686 -0.9107043482455202 -0.34337180809725176 -0.9106729071094961 -0.026339486326007768 -0.0022701541222017786
226200000000.0 -0.02634065242397008 -0.0022248147209251883 -0.34416522606880856 -0.9104370242218156 -0.3441464054739099 -0.9104060473389631 -0.026324702547716558 -0.0022217274816711935
226300000000.0 -0.02632553360580847 -0.0021759685428204053 -0.34494092758303 -0.9101690074236705 -0.34492120257584497 -0.9101385213636296 -0.02630948019742403 -0.0021733209696389514
226400000000.0 -0.0263099636289652 -0.002127145318393791 -0.3457168155422001 -0.9099002906072563 -0.34569619873647095 -0.9098703216432644 -0.026293818785656405 -0.002124940778620363
226500000000.0 -0.026293942002460737 -0.002078351585682049 -0.3464928883682374 -0.90963086655419 -0.3464713931369619 -0.9096014406410851 -0.026277717928419927 -0.002076593114715023
226600000000.0 -0.026277468350208718 -0.0020295938976632143 -0.34726914433875616 -0.9093607280746784 -0.34724678480633664 -0.9093318708270718 -0.026261177347526293 -0.0020282841956222857
226700000000.0 -0.026260542411408683 -0.00198087882001532 -0.34804558158784615 -0.9090898680106483 -0.3480223726216172 -0.9090616046812839 -0.026244196870879036 -0.0019800202486494837
226800000000.0 -0.02624316404088811 -0.001932212928865374 -0.34882219810693293 -0.9088182792388503 -0.34879815530806946 -0.9087906346971704 -0.026226776432721637 -0.0019318075087122327
226900000000.0 -0.0262253332093962 -0.0018836028085263505 -0.3495989917457116 -0.9085459546739438 -0.34957413143951777 -0.9085189533848733 -0.026208916073841817 -0.0018836522163259515
227000000000.0 -0.026207050003853552 -0.0018350550492285717 -0.3503759602131468 -0.9082728872715542 -0.3503502994387407 -0.90824655327453 -0.026190615941737234 -0.001835560615595863
227100000000.0 -0.026188314627549624 -0.0017865762448414416 -0.3511531010785484 -0.9079990700313122 -0.3511266575779355 -0.9079734269195643 -0.02617187629073906 -0.001787538952198498
227200000000.0 -0.02616912740029461 -0.0017381729905898663 -0.3519304117727171 -0.9077244959998463 -0.35190320397927216 -0.9076995668999602 -0.02615269748209587 -0.0017395934713599773
227300000000.0 -0.02614948875852219 -0.001689851880763827 -0.3527078895891622 -0.9074491582737665 -0.35267993661551544 -0.9074249658255311 -0.026133079984014405 -0.0016917304158317358
227400000000.0 -0.026129399255340777 -0.0016416195064274794 -0.3534855316853821 -0.9071730500026042 -0.35345685331072274 -0.9071496163391723 -0.02611302437165941 -0.0016439560238651614
227500000000.0 -0.02610885956054299 -0.0015934824531185505 -0.3542633350842251 -0.9068961643917134 -0.3542339517410277 -0.9068735111200886 -0.026092531327114574 -0.001596276527179556
227600000000.0 -0.026087870460558184 -0.0015454472985507372 -0.3550412966753029 -0.9066184947051589 -0.3550112294354862 -0.9065966428870216 -0.02607160163929766 -0.0015486981489365745
227700000000.0 -0.0260664328583597 -0.001497520610315873 -0.3558194132164873 -0.9063400342685394 -0.3557886837770126 -0.9063190044014359 -0.026050236203836053 -0.0015012271017113626
227800000000.0 -0.026044547773323917 -0.0014497089435815394 -0.3565976813354554 -0.9060607764717937 -0.356566312003374 -0.9060405884706969 -0.026028436022902886 -0.0014538695854645512
227900000000.0 -0.026022216341036703 -0.001402018838794247 -0.3573760975313156 -0.9057807147719542 -0.3573441112082762 -0.9057613879512182 -0.02600620220500774 -0.0014066317855172276
228000000000.0 -0.025999439813053415 -0.0013544568193814958 -0.3581546581762859 -0.9054998426958647 -0.35812207834251103 -0.905481395751586 -0.02598353596474574 -0.0013595198705306983
228100000000.0 -0.025976219556609986 -0.0013070293894616564 -0.35893335951744054 -0.9052181538428551 -0.35890021021518115 -0.9052006048356552 -0.025960438622510393 -0.0013125399904874227
228200000000.0 -0.025952557054281265 -0.001259743031553863 -0.359712197678519 -0.9049356418873649 -0.359678503495001 -0.9049190082256121 -0.025936911604157665 -0.001265698274678024
228300000000.0 -0.02592845390359343 -0.0012126042042975625 -0.36049116866178965 -0.904652300581532 -0.3604569547116619 -0.9046365990050159 -0.025912956440633125 -0.0012190008296967937
228400000000.0 -0.025903911816585825 -0.0011656193401765992 -0.36127026834997816 -0.9043681237577175 -0.3612355602572748 -0.9043533703217914 -0.025888574767556093 -0.0011724537374390319
228500000000.0 -0.02587893261932611 -0.001118794843250841 -0.3620494925082534 -0.9040831053309959 -0.36201431638788145 -0.9040693153912001 -0.025863768324763576 -0.001126063053109324
228600000000.0 -0.02585351825136987 -0.0010721370869013476 -0.36282883678626693 -0.903797239301588 -0.3627932192250342 -0.9037844274987723 -0.02583853895580926 -0.0010798348032401877
228700000000.0 -0.025827670765180995 -0.0010256524115787018 -0.3636082967202492 -0.9035105197572418 -0.36357226475744214 -0.9034987000031929 -0.025812888607427784 -0.0010337749837135064
228800000000.0 -0.025801392325496185 -0.0009793471225700114 -0.36438786773516213 -0.9032229408755578 -0.3643514488426916 -0.9032121263391562 -0.02578681932895279 -0.0009878895578012273
228900000000.0 -0.02577468520864433 -0.0009332274877732174 -0.3651675451469026 -0.9029344969262654 -0.36513076720902743 -0.9029247000201736 -0.025760333271696554 -0.0009421844542097061
229000000000.0 -0.025747551801815025 -0.0008872997354871814 -0.3659473241645554 -0.9026451822734414 -0.36591021545720104 -0.9026364146413445 -0.025733432688286977 -0.0008966655651407826
229100000000.0 -0.025719994602285474 -0.0008415700522183959 -0.36672719989269803 -0.9023549913776631 -0.3666897890623835 -0.9023472638820691 -0.025706119931969564 -0.000851338744366412
229200000000.0 -0.025692016216590653 -0.000796044580498439 -0.36750716733375577 -0.9020639187981135 -0.367469483376144 -0.9020572415087283 -0.02567839745586288 -0.0008062098053122608
229300000000.0 -0.025663619359654808 -0.000750729416723777 -0.36828722139039766 -0.901771959194623 -0.36824929362848513 -0.901766341377309 -0.02565026781217776 -0.0007612845191622827
229400000000.0 -0.0256348068538706 -0.000705630609010116 -0.36906735686798664 -0.9014791073296458 -0.3690292149299489 -0.9014745574359775 -0.025621733651397645 -0.000716568612975261
229500000000.0 -0.02560558162813419 -0.0006607541550697021 -0.36984756847706246 -0.9011853580701821 -0.36980924227376993 -0.9011818837276085 -0.0255927977214177 -0.0006720677678215528
229600000000.0 -0.02557594671683464 -0.0006161060001030454 -0.37062785083587657 -0.9008907063896313 -0.3705893705380986 -0.900888314392254 -0.02556346286664809 -0.0006277876169317138
229700000000.0 -0.025545905258794327 -0.0005716920347176364 -0.37140819847296014 -0.9005951473695825 -0.3713695944882742 -0.900593843669564 -0.025533732027073177 -0.0005837337438695729
229800000000.0 -0.025515460496169335 -0.000527518092866326 -0.37218860582973734 -0.9002986762015389 -0.37214990877915727 -0.9002984659011407 -0.025503608237282285 -0.0005399116807211132
229900000000.0 -0.025484615773300138 -0.00048358994981003204 -0.37296906726316986 -0.9000012881885835 -0.3729303079575176 -0.9000021755328567 -0.02547309462545148 -0.0004963269063053195
230000000000.0 -0.025453374535521607 -0.00043991332010416415 -0.3737495770484392 -0.8997029787469643 -0.37371078646446937 -0.8997049671170891 -0.02544219441229776 -0.00045298484440446207
230100000000.0 -0.025421740327926223 -0.000396493855611296 -0.3745301293816663 -0.8994037434076242 -0.37449133863796724 -0.8994068353149111 -0.025410910909989905 -0.0004098908620169676
230200000000.0 -0.025389716794089124 -0.00035333714354017905 -0.3753107183826559 -0.8991035778176586 -0.3752719587153438 -0.8991077748982206 -0.025379247521028 -0.0003670502676336846
230300000000.0 -0.025357307674743375 -0.00031044870451204544 -0.3760913380976749 -0.8988024777417006 -0.3760526408358991 -0.8988077807517987 -0.025347207737082746 -0.0003244683095357533
230400000000.0 -0.025324516806420887 -0.0002678339906573425 -0.376871982502263 -0.8985004390632371 -0.3768333790435407 -0.8985068478753092 -0.025314795137803815 -0.0002821501741195606
230500000000.0 -0.02529134812004654 -0.0002254983837390814 -0.3776526455040587 -0.8981974577858604 -0.37761416728946035 -0.8982049713852388 -0.025282013389588378 -0.00024010098424499845
230600000000.0 -0.02525780563949536 -0.00018344719330712423 -0.3784333209456666 -0.89789353003444 -0.378394999434869 -0.8979021465167625 -0.025248866244320548 -0.00019832579760698354
230700000000.0 -0.0252238934801054 -0.00014168565488920172 -0.3792140026075305 -0.8975886520562284 -0.3791758692537554 -0.8975983686255455 -0.025215357538074672 -0.00015682960514169734
230800000000.0 -0.02518961584715666 -0.00010021892820595233 -0.3799946842108378 -0.8972828202218904 -0.37995677043570114 -0.8972936331894794 -0.02518149118978313 -0.00011561732945003857
230900000000.0 -0.025154977034308558 -5.9052095425158724e-05 -0.3807753594204421 -0.8969760310264684 -0.380737696588726 -0.8969879358103494 -0.025147271199877863 -7.469382325642483e-05
231000000000.0 -0.02511998142199932 -1.8190159450247202e-05 -0.38155602184779797 -0.896668281090257 -0.3815186412421717 -0.8966812722154219 -0.02511270164889386 -3.4063867895614414e-05
231100000000.0 -0.025084633475808887 2.236195776043688e-05 -0.38233666505391933 -0.8963595671596272 -0.38229959784962575 -0.8963736382589804 -0.02507778669604363 6.2678281752997495e-06
231200000000.0 -0.02504893774478824 6.259941683248903e-05 -0.38311728255234195 -0.8960498861077543 -0.38308055979187033 -0.8960650299237689 -0.02504253057776363 4.629663082848047e-05
231300000000.0 -0.025012898859748448 0.00010251746258247586 -0.3838978678121065 -0.8957392349352925 -0.38386152037987126 -0.8957554433223797 -0.025006937606225885 8.601798168997343e-05
231400000000.0 -0.02497652153151896 0.00014211142558373787 -0.38467841426074356 -0.8954276107709545 -0.3846424728577896 -0.8954448746985525 -0.024971012167823867 0.00012542739953175033
231500000000.0 -0.02493981054917237 0.00018137672369587815 -0.38545891528727155 -0.8951150108720357 -0.38542341040602823 -0.8951333204284179 -0.02493475872163065 0.00016452048163054296
231600000000.0 -0.024902770778212853 0.00022030886355439895 -0.38623936424519884 -0.8948014326248496 -0.386204326144298 -0.894820777021646 -0.024898181797822723 0.00020329290509515515
231700000000.0 -0.02486540715873891 0.00025890344201748224 -0.38701975445552883 -0.894486873545094 -0.38698521313471296 -0.8945072411225334 -0.024861285996088302 0.00024174042815656657
231800000000.0 -0.02482772470356772 0.0002971561475775942 -0.3878000792097716 -0.8941713312781469 -0.38776606438490835 -0.8941927095110127 -0.024824075983995785 0.0002798588914300029
231900000000.0 -0.0247897284963372 0.0003350627617259474 -0.38858033177294515 -0.8938548035992797 -0.38854687285117073 -0.8938771791035789 -0.0247865564953484 0.0003176442191353216
232000000000.0 -0.02475142368957176 0.0003726191602765916 -0.38936050538658795 -0.8935372884138006 -0.38932763144159854 -0.893560646954146 -0.024748732328505423 0.0003550924202860359
232100000000.0 -0.02471281550272653 0.00040982131465174253 -0.39014059327175904 -0.8932187837571232 -0.3901083330192719 -0.8932431102548227 -0.024710608344685317 0.0003921995898442932
232200000000.0 -0.024673909220199613 0.00044666529311277353 -0.39092058863203333 -0.8928992877947591 -0.3908889704054352 -0.8929245663366082 -0.024672189466242247 0.00042896190982968165
232300000000.0 -0.0246347101893217 0.0004831472619604338 -0.39170048465649465 -0.8925787988222381 -0.3916695363827015 -0.8926050126700165 -0.024633480674921382 0.00046537565040518096
232400000000.0 -0.02459522381832088 0.0005192634866790968 -0.3924802745227108 -0.892257315264956 -0.39245002369825616 -0.8922844468656166 -0.024594487010093886 0.0005014371709120174
232500000000.0 -0.02455545557425885 0.0005550103330434089 -0.393259951399707 -0.8919348356779448 -0.39323042506707817 -0.891962866674494 -0.024555213566968426 0.0005371429208777262
232600000000.0 -0.02451541098094997 0.0005903842681708652 -0.3940395084509151 -0.8916113587455767 -0.3940107331751613 -0.8916402699886408 -0.02451566549478422 0.0005724894409741185
232700000000.0 -0.024475095616855243 0.000625381861537117 -0.39481893883711905 -0.8912868832811858 -0.39479094068274606 -0.8913166548412521 -0.024475847994987133 0.0006074733639487301
232800000000.0 -0.02443451511295852 0.0006599997859363387 -0.395598235719375 -0.8909614082266273 -0.3955710402275506 -0.8909920194069612 -0.024435766319384076 0.0006420914155061842
232900000000.0 -0.024393675150618244 0.0006942348183980256 -0.3963773922619132 -0.8906349326517637 -0.39635102442799836 -0.8906663620019831 -0.024395425768283973 0.0006763404151561836
233000000000.0 -0.024352581459408107 0.0007280838410571829 -0.39715640163502586 -0.8903074557538716 -0.3971308858864551 -0.8903396810841815 -0.024354831688620255 0.0007102172770203808
233100000000.0 -0.024311239814931482 0.0007615438419684817 -0.39793525701792765 -0.8899789768569912 -0.3979106171924549 -0.8900119752530617 -0.024313989472055042 0.0007437190105931206
233200000000.0 -0.0242696560366267 0.0007946119158824994 -0.3987139516015883 -0.8896494954111955 -0.39869021092591805 -0.8896832432496793 -0.024272904553076444 0.0007768427214712227
233300000000.0 -0.024227835985556286 0.0008272852649624003 -0.3994924785915469 -0.8893190109917972 -0.39946965966036885 -0.8893534839564725 -0.024231582407078265 0.0008095856120318667
233400000000.0 -0.024185785562178496 0.0008595611994612413 -0.40027083121069135 -0.8889875232984845 -0.40024895596613835 -0.889022696397016 -0.02419002854842278 0.0008419449820796545
233500000000.0 -0.024143510704109812 0.0008914371383376243 -0.40104900270201654 -0.8886550321543909 -0.40102809241356113 -0.8886908797356957 -0.024148248528500067 0.0008739182294402919
233600000000.0 -0.024101017383876277 0.0009229106098339079 -0.4018269863313422 -0.8883215375050952 -0.4018070615761523 -0.8883580332773043 -0.024106247933772345 0.0009055028505241387
233700000000.0 -0.02405831160665067 0.0009539792519920097 -0.4026047753900045 -0.8879870394175645 -0.4025858560337745 -0.8880241564665676 -0.02406403238380775 0.0009366964408365083
233800000000.0 -0.024015399407983938 0.0009846408131268909 -0.40338236319750553 -0.8876515380790276 -0.40336446837578005 -0.8876892488875848 -0.0240216075293073 0.0009674966954526321
233900000000.0 -0.023972286851529453 0.0010148931522478502 -0.4041597431041401 -0.8873150337957759 -0.40414289120414826 -0.8873533102631928 -0.023978979050124635 0.0009979014094497285
234000000000.0 -0.02392898002675672 0.001044734239423699 -0.4049369084935664 -0.8869775269919243 -0.4049211171365804 -0.8870163404542619 -0.02393615265327758 0.001027908478290188
234100000000.0 -0.023885485046662294 0.0010741621561035292 -0.40571385278535493 -0.8866390182080862 -0.40569913880959313 -0.8866783394589088 -0.02389313407095246 0.0010575158981692427
234200000000.0 -0.023841808045477784 0.0011031750953828833 -0.40649056943748535 -0.8862995081000039 -0.4064769488815728 -0.8863393074116372 -0.02384992905850978 0.0010867217663155567
234300000000.0 -0.02379795517637018 0.001131771362217104 -0.4072670519488006 -0.8859589974371171 -0.40725454003580286 -0.8859992445824084 -0.02380654339247681 0.0011155242812478493
234400000000.0 -0.023753932609144393 0.0011599493735855167 -0.40804329386143046 -0.885617487101071 -0.4080319049834766 -0.8856581513756335 -0.023762982868546886 0.0011439217429903804
234500000000.0 -0.023709746527944976 0.0011877076586064034 -0.40881928876314605 -0.8852749780841674 -0.4088090364666552 -0.8853160283290943 -0.023719253299569414 0.0011719125532464382
234600000000.0 -0.02366540312895424 0.0012150448585941907 -0.409595030289691 -0.8849314714877631 -0.4095859272612164 -0.884972876112794 -0.023675360513543787 0.0011994952155232168
234700000000.0 -0.023620908618100043 0.0012419597270711448 -0.4103705121270548 -0.8845869685206166 -0.41036257017975825 -0.8846286955277387 -0.023631310351612145 0.0012266683352191478
234800000000.0 -0.023576269208755784 0.001268451129724552 -0.4111457280136898 -0.8842414704971749 -0.4111389580744629 -0.8842834875046469 -0.023587108666051397 0.001253430619664129
234900000000.0 -0.023531491119456155 0.0012945180443153334 -0.4119206717426898 -0.8838949788358131 -0.41191508383992975 -0.8839372531025839 -0.023542761318270815 0.0012797808781194518
235000000000.0 -0.023486580571609586 0.0013201595605314919 -0.4126953371639076 -0.8835474950570326 -0.4126909404159655 -0.8835899935075492 -0.02349827417680924 0.001305718021731005
235100000000.0 -0.023441543787221807 0.0013453748797955685 -0.4134697181860239 -0.8831990207815921 -0.41346652079033364 -0.8832417100309712 -0.02345365311534058 0.001331241063443398
235200000000.0 -0.023396386986626598 0.0013701633150171948 -0.41424380877856004 -0.8828495577286096 -0.41424181800145954 -0.8828924041081532 -0.023408904010680583 0.0013563491178679066
235300000000.0 -0.02335111638622374 0.0013945242902981428 -0.4150176029738352 -0.8824991077136104 -0.41501682514109406 -0.8825420772966516 -0.023364032740802128 0.0013810414011098675
235400000000.0 -0.023305738196230944 0.0014184573405850228 -0.41579109486886556 -0.8821476726465339 -0.4157915353569237 -0.8821907312745891 -0.02331904518285589 0.0014053172305522343
235500000000.0 -0.023260258618442567 0.0014419621112738404 -0.4165642786272065 -0.8817952545296998 -0.41656594185514045 -0.8818383678389096 -0.023273947211201837 0.0014291760245974086
235600000000.0 -0.02321468384400454 0.0014650383577626744 -0.41733714848074077 -0.8814418554557255 -0.4173400379029603 -0.881484988903564 -0.02322874469544741 0.0014526173023659346
235700000000.0 -0.023169020051203124 0.001487685944957224 -0.4181096987313982 -0.8810874776054205 -0.41811381683108734 -0.8811305964976529 -0.02318344349849563 0.001475640683354474
235800000000.0 -0.023123273403266514 0.0015099048467265843 -0.418881923752816 -0.8807321232456247 -0.4188872720361236 -0.8807751927634919 -0.023138049474607222 0.0014982458870519807
235900000000.0 -0.023077450046182297 0.001531695145309792 -0.4196538179919494 -0.8803757947270257 -0.4196603969829368 -0.8804187799546357 -0.023092568467469918 0.0015204327325131796
236000000000.0 -0.02303155610653793 0.001553057030675547 -0.42042537597060303 -0.8800184944819394 -0.42043318520695827 -0.8800613604338442 -0.023047006308286353 0.0015422011378932456
236100000000.0 -0.022985597689370866 0.0015739907998321685 -0.42119659228690914 -0.8796602250220498 -0.42120563031643066 -0.8797029366709864 -0.023001368813871596 0.001563551119938424
236200000000.0 -0.02293958087604568 0.0015944968560941608 -0.421967461616738 -0.8793009889361333 -0.42197772599459754 -0.8793435112409087 -0.022955661784766903 0.0015844827934412282
236300000000.0 -0.02289351172214727 0.0016145757082973115 -0.4227379787150482 -0.878940788887737 -0.4227494660018338 -0.8789830868212308 -0.022909891003368956 0.0016049963706501543
236400000000.0 -0.022847396255399253 0.0016342279699715634 -0.4235081384171659 -0.8785796276128485 -0.42352084417771474 -0.8786216661901212 -0.022864062232076328 0.0016250921606443796
236500000000.0 -0.022801240473602755 0.0016534543584659797 -0.42427793564000016 -0.8782175079175236 -0.4242918544430196 -0.8782592522239943 -0.022818181211454194 0.0016447705686662509
236600000000.0 -0.022755050342600155 0.001672255694029766 -0.4250473653831977 -0.8778544326755081 -0.4250624908016822 -0.8778958478951906 -0.022772253658415936 0.0016640320954167801
236700000000.0 -0.02270883179426459 0.0016906328988492152 -0.4258164227302106 -0.877490404825823 -0.4258327473426566 -0.8775314562695978 -0.022726285264423086 0.001682877336312883
236800000000.0 -0.02266259072451517 0.0017085869960402603 -0.4265851028493336 -0.8771254273703362 -0.42660261824175155 -0.8771660805042246 -0.0226802816937124 0.0017013069807064766
236900000000.0 -0.022616332991353995 0.0017261191085973147 -0.42735340099463065 -0.8767595033713195 -0.4273720977633605 -0.8767997238447545 -0.022634248581529712 0.0017193218110654177
237000000000.0 -0.022570064412943888 0.0017432304583030267 -0.42812131250682495 -0.876392635948988 -0.4281411802621512 -0.8764323896230419 -0.022588191532405058 0.0017369227021211031
237100000000.0 -0.022523790765704477 0.0017599223645904112 -0.4288888328141071 -0.876024828279021 -0.4289098601846778 -0.8760640812545816 -0.022542116118434954 0.0017541106199743305
237200000000.0 -0.022477517782436625 0.0017761962433709738 -0.42965595743287327 -0.8756560835900795 -0.42967813207091876 -0.875694802235942 -0.022496027877592365 0.0017708866211721846
237300000000.0 -0.022431251150491133 0.001792053605817867 -0.4304226819684039 -0.8752864051613064 -0.43044599055575683 -0.8753245561421621 -0.02244993231206675 0.001787251851745322
237400000000.0 -0.02238499650995591 0.0018074960571139351 -0.4311890021154618 -0.874915796319819 -0.4312134303703773 -0.8749533466241228 -0.022403834886623876 0.0018032075462146237
237500000000.0 -0.022338759451881303 0.0018225252951533306 -0.4319549136588308 -0.8745442604382032 -0.431980446343601 -0.8745811774058853 -0.022357741026989078 0.0018187550265572516
237600000000.0 -0.02229254551653918 0.0018371431092172672 -0.43272041247377807 -0.8741718009319887 -0.432747033403141 -0.8742080522820013 -0.022311656118264675 0.001833895701150622
237700000000.0 -0.022246360191720535 0.0018513513786028563 -0.4334854945264513 -0.873798421257138 -0.43351318657679166 -0.8738339751148045 -0.022265585503372008 0.0018486310636740876
237800000000.0 -0.022200208911058936 0.0018651520712196583 -0.4342501558742064 -0.8734241249075229 -0.43427890099353916 -0.8734589498316718 -0.02221953448151731 0.001862962691983214
237900000000.0 -0.022154097052400387 0.001878547242155692 -0.43501439266586367 -0.8730489154124054 -0.4350441718845996 -0.8730829804222652 -0.022173508306693405 0.0018768922469565782
238000000000.0 -0.022108029936203706 0.0018915390321980429 -0.4357782011418997 -0.8726727963339257 -0.43580899458438666 -0.8727060709357577 -0.022127512186204314 0.0018904214713020662
238100000000.0 -0.02206201282398216 0.0019041296663350376 -0.4365415776345646 -0.8722957712645872 -0.4365733645313969 -0.872328225478035 -0.02208155127922727 0.0019035521883475372
238200000000.0 -0.022016050916783988 0.0019163214522125156 -0.4373045185679359 -0.8719178438247573 -0.4373372772690279 -0.8719494482088912 -0.022035630695400238 0.0019162863007895737
238300000000.0 -0.021970149353708508 0.0019281167785706534 -0.43806702045790197 -0.8715390176601706 -0.43810072844631287 -0.8715697433392051 -0.02198975549344102 0.0019286257894261382
238400000000.0 -0.021924313210465816 0.0019395181136395892 -0.43882907991207787 -0.8711592964394423 -0.4388637138185873 -0.8711891151281014 -0.021943930679802492 0.0019405727118502092
238500000000.0 -0.02187854749798101 0.001950528003516021 -0.43959069362965586 -0.8707786838516011 -0.43962622924807454 -0.8708075678801149 -0.021898161207359334 0.0019521292011292237
238600000000.0 -0.021832857161029295 0.0019611490705043104 -0.44035185840118507 -0.8703971836036266 -0.44038827070439496 -0.8704251059423351 -0.021852451974125206 0.0019632974644484126
238700000000.0 -0.02178724707692205 0.0019713840114345383 -0.4411125711082905 -0.8700147994180099 -0.4411498342650047 -0.8700417337015529 -0.02180680782200519 0.001974079781737294
238800000000.0 -0.021741722054235586 0.001981235595954122 -0.4418728287233191 -0.8696315350303288 -0.44191091611554867 -0.8696574555814024 -0.0217612335355867 0.001984478504268759
238900000000.0 -0.021696286831577264 0.00199070666479133 -0.4426326283089279 -0.8692473941868435 -0.4426715125501452 -0.8692722760394992 -0.021715733840960982 0.0019944960532337877
239000000000.0 -0.02165094607639825 0.0019998001280002943 -0.4433919670176024 -0.868862380642109 -0.4434316199715921 -0.8688861995645824 -0.021670313404577445 0.0020041349182989827
239100000000.0 -0.021605704383856575 0.0020085189631792112 -0.444150842091118 -0.8684764981566249 -0.4441912348914979 -0.8684992306736621 -0.021624976832143938 0.002013397656138704
239200000000.0 -0.02156056627571405 0.002016866213668449 -0.4449092508599229 -0.8680897504944882 -0.4449503539303291 -0.8681113739091662 -0.02157972866755358 0.0020222868889479477
239300000000.0 -0.021515536199287914 0.0020248449867280686 -0.4456671907424815 -0.8677021414210899 -0.4457089738173946 -0.867722633836093 -0.021534573391851407 0.002030805302937713
239400000000.0 -0.021470618526443153 0.0020324584516957546 -0.44642465924453856 -0.8673136747008361 -0.4464670913907458 -0.8673330150391867 -0.02148951542224233 0.002038955646808143
239500000000.0 -0.021425817552634358 0.0020397098381273837 -0.44718165395832593 -0.8669243540948911 -0.4472247035970016 -0.8669425221201046 -0.021444559111130575 0.002046740730208329
239600000000.0 -0.02138113749598901 0.002046602433920543 -0.4479381725617219 -0.8665341833589604 -0.44798180749110783 -0.8665511596946114 -0.02139970874519878 0.0020541634221778464
239700000000.0 -0.021336582496445145 0.002053139583421164 -0.4486942128173312 -0.8661431662411047 -0.4487384002360078 -0.8661589323897831 -0.0213549685445311 0.0020612266495711427
239800000000.0 -0.021292156614930502 0.0020593246855184297 -0.44944977257152624 -0.8657513064795841 -0.4494944791022503 -0.8657658448412291 -0.021310342661766297 0.0020679333954712526
239900000000.0 -0.0212478638325893 0.002065161191719714 -0.4502048497534213 -0.8653586078007459 -0.4502500414675221 -0.8653719016903351 -0.021265835181293026 0.0020742866975830858
240000000000.0 -0.021203708050062917 0.0020706526042223268 -0.45095944237379687 -0.864965073916941 -0.45100508481610546 -0.8649771075815197 -0.021221450118490498 0.0020802896466212114
240100000000.0 -0.021159693086809303 0.002075802473966826 -0.45171354852396417 -0.8645707085244901 -0.45175960673826404 -0.864581467159528 -0.021177191418996003 0.0020859453846813975
240200000000.0 -0.021115822680478572 0.002080614398686297 -0.4524671663745832 -0.864175515301677 -0.45251360492956155 -0.864184985066731 -0.02113306295802384 0.002091257103604831
240300000000.0 -0.021072100486333796 0.002085092020940274 -0.4532202941744207 -0.8637794979067982 -0.45326707719010145 -0.8637876659404734 -0.02108906853971797 0.0020962280433263316
240400000000.0 -0.021028530076719957 0.002089239026149777 -0.4539729302490647 -0.8633826599762436 -0.4540200214237054 -0.8633895144104295 -0.021045211896546002 0.002100861490222531
240500000000.0 -0.020985114940581428 0.0020930591406161498 -0.4547250729995927 -0.8629850051226305 -0.4547724356370245 -0.8629905350960045 -0.02100149668873074 0.0021051607754424126
240600000000.0 -0.020941858483032188 0.0020965561295462824 -0.45547672090117636 -0.8625865369329759 -0.45552431793856846 -0.8625907326037586 -0.020957926503731066 0.002109129273240695
240700000000.0 -0.02089876402496696 0.00209973379506497 -0.4562278725016524 -0.8621872589669259 -0.45627566653767926 -0.8621901115248746 -0.02091450485574799 0.002112770399298351
240800000000.0 -0.020855834802729623 0.0021025959742274757 -0.45697852642005515 -0.8617871747550225 -0.4570264797434461 -0.8617886764326502 -0.020871235185285258 0.0021160876090399678
240900000000.0 -0.020813073967824468 0.0021051465370348077 -0.45772868134508266 -0.8613862877970277 -0.4577767559635338 -0.8613864318800388 -0.020828120858744196 0.002119084395950217
241000000000.0 -0.020770484586680744 0.0021073893844419274 -0.4584783360335407 -0.8609846015602944 -0.4585264937029658 -0.8609833823972199 -0.020785165168057968 0.0021217642898822622
241100000000.0 -0.020728069640459406 0.002109328446375358 -0.4592274893087393 -0.8605821194781916 -0.45927569156283926 -0.8605795324892178 -0.020742371330367364 0.0021241308553710996
241200000000.0 -0.02068583202491716 0.0021109676797442124 -0.4599761400588443 -0.8601788449485802 -0.4600243482389726 -0.8601748866335611 -0.020699742487739446 0.0021261876899381915
241300000000.0 -0.020643774550312185 0.0021123110664619717 -0.4607242872352005 -0.8597747813323484 -0.4607724625205013 -0.8597694492779866 -0.020657281706924237 0.002127938422401854
241400000000.0 -0.0206018999413582 0.0021133626114719557 -0.46147192985061636 -0.8593699319519887 -0.4615200332884138 -0.8593632248381831 -0.020614991979149185 0.0021293867111882117
241500000000.0 -0.020560210837232792 0.002114126340773065 -0.4622190669776095 -0.8589643000902509 -0.46226705951402475 -0.8589562176955977 -0.020572876219960123 0.002130536242639895
241600000000.0 -0.020518709791624998 0.0021146062994626983 -0.462965697746619 -0.8585578889888288 -0.4630135402573905 -0.8585484321952708 -0.020530937269095436 0.0021313907293355537
241700000000.0 -0.020477399272839286 0.002114806549779281 -0.46371182134419514 -0.8581507018471273 -0.46375947466567874 -0.8581398726437407 -0.02048917789040607 0.002131953908405301
241800000000.0 -0.02043628166393831 0.0021147311691573816 -0.46445743701115405 -0.8577427418210672 -0.4645048619714825 -0.8577305433069878 -0.02044760077180996 0.002132229539855846
241900000000.0 -0.020395359262939193 0.0021143842482978367 -0.4652025440406967 -0.8573340120219678 -0.4652497014910689 -0.8573204484084385 -0.02040620852528966 0.0021322214049020066
242000000000.0 -0.020354634283052477 0.0021137698892420027 -0.465947141776521 -0.8569245155154719 -0.46599399262260083 -0.8569095921270192 -0.02036500368692678 0.002131933304302128
242100000000.0 -0.02031410885297 0.002112892203464916 -0.4666912296108866 -0.8565142553205458 -0.46673773484428505 -0.8564979785952702 -0.020323988716977836 0.0021313690567033054
242200000000.0 -0.020273785017195234 0.0021117553099825937 -0.467434806982676 -0.8561032344085309 -0.46748092771249383 -0.8560856118975162 -0.02028316599998576 0.002130532496997222
242300000000.0 -0.020233664736424913 0.0021103633334717004 -0.4681778733754251 -0.855691455702261 -0.4682235708598286 -0.8556724960680921 -0.020242537844934037 0.002129427474682305
242400000000.0 -0.02019374988796648 0.002108720402406882 -0.46892042831533337 -0.855278922075245 -0.46896566399314 -0.8552586350896366 -0.020202106485432178 0.0021280578522377466
242500000000.0 -0.02015404226620792 0.0021068306472197106 -0.4696624713692623 -0.8548656363509002 -0.46970720689151335 -0.8548440328914347 -0.020161874079945113 0.0021264275035132126
242600000000.0 -0.020114543583130445 0.0021046981984694734 -0.4704040021427161 -0.8544516013018656 -0.47044819940420524 -0.8544286933478337 -0.020121842712060415 0.0021245403121239164
242700000000.0 -0.020075255468858407 0.002102327185039121 -0.47114502027780886 -0.8540368196493622 -0.47118864144854855 -0.8540126202767147 -0.020082014390784733 0.002122400169864689
242800000000.0 -0.020036179472259864 0.0020997217323517822 -0.4718855254512185 -0.8536212940626322 -0.471928533007814 -0.8535958174380348 -0.02004239105088469 0.0021200109751391156
242900000000.0 -0.019997317061584613 0.002096885960604549 -0.47262551737212916 -0.8532050271584259 -0.4726678741290382 -0.8531782885324248 -0.020002974553261492 0.0021173766313964506
243000000000.0 -0.01995866962514426 0.0020938239830341353 -0.47336499578017316 -0.85278802150057 -0.47340666492082334 -0.8527600371998646 -0.019963766685359593 0.0021145010455963908
243100000000.0 -0.019920238472033523 0.0020905399041960047 -0.474103960443355 -0.8523702795995882 -0.4741449055510968 -0.8523410670184194 -0.019924769161610047 0.002111388126679231
243200000000.0 -0.01988202483289332 0.0020870378182796523 -0.4748424111559808 -0.8519518039123853 -0.4748825962448466 -0.8519213815030358 -0.01988598362391301 0.0021080417840641076
243300000000.0 -0.019844029860709832 0.0020833218074384264 -0.4755803477365838 -0.8515325968420089 -0.47561973728183454 -0.8515009841044265 -0.019847411642148118 0.002104465926156184
243400000000.0 -0.019806254631655314 0.002079395940156662 -0.47631777002583936 -0.8511126607374596 -0.47635632899426544 -0.8510798782080011 -0.019809054714723915 0.0021006644588813434
243500000000.0 -0.019768700145966895 0.002075264269641389 -0.47705467788449435 -0.850691997893576 -0.4770923717644556 -0.8506580671328831 -0.019770914269157027 0.0020966412842399014
243600000000.0 -0.01973136732885896 0.0020709308322366107 -0.4777910711912897 -0.8502706105509859 -0.4778278660224574 -0.8502355541309955 -0.01973299166268301 0.0020924002988744273
243700000000.0 -0.019694257031475322 0.0020663996458792112 -0.4785269498408931 -0.8498485008961063 -0.47856281224368363 -0.8498123423862043 -0.01969528818290279 0.002087945392669045
243800000000.0 -0.019657370031877106 0.002061674708577657 -0.4792623137418381 -0.8494256710612277 -0.4792972109465003 -0.8493884350135495 -0.01965780504845725 0.0020832804473684325
243900000000.0 -0.01962070703606183 0.0020567599969204607 -0.4799971628144658 -0.8490021231246473 -0.4800310626898076 -0.8489638350585387 -0.019620543409731094 0.0020784093352126474
244000000000.0 -0.019584268679019887 0.002051659464628082 -0.4807314969888853 -0.8485778591108734 -0.480764368070609 -0.8485385454965183 -0.01958350434959089 0.0020733359176109208
244100000000.0 -0.019548055525822505 0.0020463770411250815 -0.4814653162029371 -0.8481528809908901 -0.4814971277215631 -0.8481125692321121 -0.01954668888414857 0.002068064043825209
244200000000.0 -0.019512068072740796 0.002040916630154242 -0.4821986204001818 -0.8477271906824821 -0.4822293423085362 -0.8476859090987362 -0.019510097963553703 0.002062597549689691
244300000000.0 -0.019476306748397936 0.002035282108424371 -0.4829314095278908 -0.8473007900506309 -0.4829610125281306 -0.8472585678581868 -0.019473732472817838 0.002056940256350533
244400000000.0 -0.019440771914948075 0.0020294773242927303 -0.48366368353506733 -0.8468736809079596 -0.4836921391052253 -0.8468305482002995 -0.01943759323265677 0.0020510959690371302
244500000000.0 -0.019405463869287543 0.002023506096484151 -0.48439544237048093 -0.8464458650152503 -0.48442272279050286 -0.8464018527426846 -0.019401681000369396 0.0020450684758571793
244600000000.0 -0.0193703828442927 0.002017372212846784 -0.4851266859807154 -0.8460173440820167 -0.48515276435796634 -0.8459724840305337 -0.01936599647073466 0.0020388615466208158
244700000000.0 -0.0193355290100854 0.002011079429148179 -0.4858574143082602 -0.8455881197671375 -0.4858822646024832 -0.8455424445365022 -0.019330540276936738 0.002032478931695894
244800000000.0 -0.019300902475322956 0.002004631467903673 -0.4865876272895981 -0.8451581936795495 -0.48661122433729737 -0.845111736660661 -0.01929531299151303 0.002025924360886272
244900000000.0 -0.019266503288514515 0.00199803201725325 -0.48731732485334806 -0.8447275673789942 -0.4873396443915769 -0.8446803627305219 -0.0192603151273246 0.002019201542350472
245000000000.0 -0.01923233143936136 0.001991284729869703 -0.4880465069184121 -0.8442962423768369 -0.4880675256079467 -0.8442483250011491 -0.01922554713855048 0.0020123141615397385
245100000000.0 -0.019198386860120695 0.001984393221910335 -0.4887751733921713 -0.8438642201369224 -0.488794868840045 -0.8438156256553202 -0.019191009421702807 0.002005265880174045
245200000000.0 -0.019164669426984304 0.001977361072008386 -0.4895033241686917 -0.8434315020765031 -0.4895216749500739 -0.8433822668037791 -0.019156702316659495 0.0019980603352436495
245300000000.0 -0.019131178961490997 0.0019701918203115453 -0.4902309591269847 -0.8429980895672131 -0.49024794480638084 -0.8429482504855548 -0.019122626107722494 0.001990701138053945
245400000000.0 -0.01909791523194764 0.001962888967547917 -0.4909580781292858 -0.8425639839360983 -0.4909736792810406 -0.842513578668348 -0.019088781024691182 0.0019831918732832877
245500000000.0 -0.019064877954869594 0.0019554559741543362 -0.4916846810193793 -0.8421291864667028 -0.4916988792474635 -0.8420782532489965 -0.019055167243951236 0.0019755360980967026
245600000000.0 -0.019032066796444428 0.0019478962594284691 -0.4924107676209508 -0.8416936984002034 -0.4924235455780145 -0.8416422760540072 -0.019021784889587338 0.001967737341273263
245700000000.0 -0.018999481374004597 0.001940213200735166 -0.4931363377359945 -0.8412575209365986 -0.49314767914166524 -0.841205648840161 -0.01898863403450527 0.0019597991023755775
245800000000.0 -0.018967121257521834 0.0019324101327535205 -0.4938613911432384 -0.8408206552359394 -0.4938712808016509 -0.8407683732951801 -0.0189557147015752 0.0019517248509559086
245900000000.0 -0.018934985971105062 0.0019244903467658103 -0.4945859275966274 -0.84038310241962 -0.494594351413162 -0.8403304510384766 -0.018923026864780323 0.0019435180257891297
246000000000.0 -0.018903074994525277 0.0019164570899932864 -0.4953099468238548 -0.8399448635717074 -0.49531689182107763 -0.8398918836219603 -0.018890570450392098 0.001935182034145879
246100000000.0 -0.018871387764736108 0.0019083135649730811 -0.49603344852491793 -0.8395059397403214 -0.49603890285769353 -0.8394526725309174 -0.018858345338144872 0.0019267202510959184
246200000000.0 -0.01883992367741822 0.0019000629289851168 -0.4967564323707326 -0.839066331939058 -0.4967603853405056 -0.8390128191849566 -0.01882635136243117 0.0019181360188537196
246300000000.0 -0.018808682088521027 0.0018917082935135559 -0.49747889800180284 -0.8386260411484493 -0.497481340070029 -0.8385723249390152 -0.018794588313500712 0.0019094326461470698
246400000000.0 -0.01877766231582037 0.0018832527237675767 -0.498200845026922 -0.8381850683174836 -0.49820176782763087 -0.838131191084444 -0.018763055938675634 0.001900613407637024
246500000000.0 -0.018746863640477916 0.0018746992382348599 -0.49892227302192915 -0.8377434143651413 -0.4989216693734127 -0.8376894188501346 -0.01873175394356781 0.0018916815433585405
246600000000.0 -0.018716285308607635 0.0018660508082853876 -0.4996431815285275 -0.8373010801819933 -0.4996410454441339 -0.8372470094037363 -0.01870068199330798 0.0018826402582070789
246700000000.0 -0.018685926532848243 0.0018573103578191073 -0.5003635700531353 -0.8368580666318207 -0.5003598967511608 -0.8368039638529093 -0.018669839713783543 0.0018734927214549622
246800000000.0 -0.01865578649393095 0.0018484807629655822 -0.5010834380658145 -0.8364143745532788 -0.5010782239784779 -0.8363602832466568 -0.01863922669287226 0.0018642420663105273
246900000000.0 -0.01862586434225891 0.0018395648518130193 -0.5018027849992251 -0.8359700047615936 -0.5017960277807192 -0.8359159685767085 -0.018608842481694896 0.0018548913895013164
247000000000.0 -0.018596159199477713 0.0018305654042035787 -0.5025216102476614 -0.8355249580502885 -0.5025133087812625 -0.8354710207789618 -0.01857868659585766 0.001845443750909903
247100000000.0 -0.018566670160049974 0.0018214851515567106 -0.503239913166123 -0.8350792351929461 -0.5032300675703589 -0.8350254407349851 -0.018548758516706752 0.0018359021732326133
247200000000.0 -0.018537396292831437 0.0018123267767453145 -0.5039576930694619 -0.8346328369450038 -0.5039463047033197 -0.834579229273576 -0.01851905769258498 0.0018262696416787973
247300000000.0 -0.01850833664263004 0.0018030929140183368 -0.5046749492315693 -0.8341857640455584 -0.5046620206987436 -0.8341323871723612 -0.01848958354007817 0.0018165491037078435
247400000000.0 -0.01847949023177629 0.0017937861489625648 -0.5053916808846401 -0.8337380172192297 -0.5053772160368064 -0.8336849151594772 -0.018460335445276407 0.0018067434688004316
247500000000.0 -0.018450856061676353 0.0017844090185162398 -0.5061078872184764 -0.8332895971780099 -0.5060918911575876 -0.8332368139152685 -0.018431312765021756 0.0017968556082679505
247600000000.0 -0.01842243311436554 0.001774964011019162 -0.5068235673798707 -0.83284050462317 -0.5068060464594696 -0.8327880840740621 -0.018402514828163546 0.0017868883550925872
247700000000.0 -0.01839422035404774 0.001765453566317017 -0.50753872047204 -0.832390740247167 -0.5075196822975832 -0.8323387262259806 -0.01837394093680171 0.0017768445038116357
247800000000.0 -0.018366216728627385 0.0017558800758983994 -0.5082533455541196 -0.8319403047355812 -0.5082327989823029 -0.8318887409188012 -0.018345590367532156 0.0017667268104291777
247900000000.0 -0.018338421171234125 0.0017462458830865815 -0.5089674416407278 -0.8314891987690565 -0.5089453967778192 -0.8314381286598577 -0.018317462372686905 0.0017565379923683542
248000000000.0 -0.01831083260172951 0.001736553283264763 -0.5096810077015873 -0.831037423025277 -0.5096574759007539 -0.8309868899179955 -0.018289556181563454 0.0017462807284569463
248100000000.0 -0.018283449928202876 0.0017268045241552233 -0.5103940426612085 -0.8305849781809422 -0.510369036518844 -0.8305350251255624 -0.018261871001651265 0.0017359576589511014
248200000000.0 -0.018256272048456222 0.0017170018061280201 -0.5111065453986472 -0.8301318649137553 -0.5110800787496911 -0.8300825346804321 -0.01823440601985028 0.0017255713855867365
248300000000.0 -0.018229297851469737 0.0017071472825628928 -0.5118185147473099 -0.8296780839044359 -0.5117906026595624 -0.8296294189480878 -0.018207160403678962 0.00171512447167323
248400000000.0 -0.018202526218849272 0.0016972430602506911 -0.512529949494837 -0.8292236358387154 -0.51250060826227 -0.8291756782637145 -0.01818013330247275 0.0017046194422191412
248500000000.0 -0.018175956026266083 0.0016872911998285704 -0.5132408483830501 -0.8287685214093674 -0.5132100955181093 -0.8287213129343506 -0.018153323848574595 0.0016940587840879827
248600000000.0 -0.01814958614485983 0.0016772937162660246 -0.5139512101079508 -0.8283127413182197 -0.513919064332859 -0.8282663232410546 -0.018126731158507346 0.0016834449461916323
248700000000.0 -0.018123415442640192 0.0016672525793865766 -0.5146610333198087 -0.8278562962781841 -0.514627514556865 -0.827810709441116 -0.018100354334141408 0.00167278033971872
248800000000.0 -0.01809744278585465 0.001657169714424363 -0.5153703166232897 -0.8273991870152786 -0.5153354459841731 -0.8273544717702882 -0.018074192463843303 0.001662067338387084
248900000000.0 -0.018071667040341386 0.0016470470026320855 -0.5160790585776636 -0.826941414270648 -0.5160428583517426 -0.8268976104450451 -0.018048244623613412 0.0016513082787419382
249000000000.0 -0.01804608707285396 0.0016368862819116058 -0.5167872576970777 -0.8264829788025911 -0.5167497513387302 -0.8264401256648759 -0.018022509878205632 0.0016405054604707171
249100000000.0 -0.018020701752363477 0.0016266893474954768 -0.5174949124508889 -0.8260238813885694 -0.517456124565841 -0.8259820176145881 -0.01799698728223208 0.0016296611467648133
249200000000.0 -0.017995509951340114 0.001616457952657699 -0.5182020212640727 -0.8255641228272171 -0.5181619775947593 -0.8255232864666397 -0.017971675881254836 0.0016187775646981342
249300000000.0 -0.01797051054699555 0.001606193809462649 -0.5189085825176736 -0.8251037039403463 -0.5188673099276302 -0.825063932383496 -0.017946574712849554 0.0016078569056462253
249400000000.0 -0.01794570242251351 0.0015958985895519393 -0.5196145945493572 -0.8246426255749253 -0.5195721210066505 -0.8246039555199862 -0.017921682807661123 0.0015969013257323037
249500000000.0 -0.017921084468241515 0.0015855739249608998 -0.5203200556539911 -0.8241808886050631 -0.520276410213695 -0.8241433560256924 -0.017896999190436937 0.0015859129463004003
249600000000.0 -0.017896655582857697 0.001575221408973872 -0.5210249640843075 -0.8237184939339675 -0.5209801768700405 -0.8236821340473435 -0.01787252288103745 0.0015748938544192
249700000000.0 -0.017872414674503304 0.0015648425970095992 -0.5217293180516438 -0.8232554424958899 -0.5216834202361694 -0.8232202897312203 -0.017848252895423855 0.0015638461034149093
249800000000.0 -0.017848360661890057 0.0015544390075376505 -0.522433115726706 -0.8227917352580548 -0.5223861395116137 -0.8227578232255722 -0.017824188246633173 0.0015527717134289304
249900000000.0 -0.01782449247537261 0.0015440121230323794 -0.5231363552404421 -0.822327373222562 -0.5230883338349188 -0.8222947346830349 -0.01780032794572246 0.0015416726720080148
250000000000.0 -0.01780080905798043 0.0015335633909472333 -0.5238390346849437 -0.8218623574282728 -0.5237900022836484 -0.8218310242630579 -0.01777667100268651 0.0015305509347117155
250100000000.0 -0.017777309366431498 0.0015230942247280923 -0.5245411521144324 -0.8213966889526674 -0.5244911438744868 -0.8213666921343284 -0.017753216427366245 0.0015194084257545476
250200000000.0 -0.017753992372100846 0.0015126060048489167 -0.5252427055462909 -0.8209303689136863 -0.5251917575634033 -0.8209017384772082 -0.017729963230319744 0.001508247038667895
250300000000.0 -0.017730857061952137 0.0015021000798758721 -0.5259436929621625 -0.8204633984715275 -0.5258918422458942 -0.8204361634861469 -0.01770691042366916 0.0014970686369854057
250400000000.0 -0.017707902439439867 0.0014915777675613738 -0.5266441123091175 -0.8199957788304324 -0.5265913967573146 -0.8199699673721129 -0.017684057021926804 0.0014858750549573254
250500000000.0 -0.01768512752536921 0.0014810403559587621 -0.5273439615008653 -0.8195275112404256 -0.5272904198732665 -0.8195031503650039 -0.017661402042789695 0.001474668098280466
250600000000.0 -0.017662531358723862 0.0014704891045630628 -0.5280432384190336 -0.8190585969990276 -0.5279889103100734 -0.8190357127160492 -0.017638944507912206 0.001463449544854529
250700000000.0 -0.017640112997445813 0.001459925245475884 -0.5287419409145058 -0.8185890374529419 -0.5286868667253339 -0.8185676547002162 -0.01761668344364158 0.001452221145558088
250800000000.0 -0.01761787151919004 0.0014493499845941588 -0.5294400668088061 -0.8181188339996822 -0.5293842877185345 -0.8180989766185783 -0.01759461788173768 0.0014409846250467478
250900000000.0 -0.01759580602202551 0.0014387645028128963 -0.5301376138955579 -0.8176479880891887 -0.5300811718317647 -0.8176296788006935 -0.017572746860051384 0.0014297416825655195
251000000000.0 -0.01757391562510434 0.0014281699572571422 -0.530834579941972 -0.8171765012253839 -0.5307775175504708 -0.8171597616069444 -0.017551069423180996 0.0014184939927871856
251100000000.0 -0.017552199469289487 0.00141756748252542 -0.5315309626904177 -0.8167043749676959 -0.5314733233043235 -0.8166892254308754 -0.017529584623096055 0.001407243206661822
251200000000.0 -0.017530656717737927 0.001406958191954069 -0.5322267598600182 -0.8162316109325434 -0.5321685874681261 -0.8162180707014999 -0.0175082915197321 0.0013959909522865159
251300000000.0 -0.017509286556444705 0.0013963431788980142 -0.532921969148317 -0.8157582107947587 -0.5328633083628151 -0.8157462978855784 -0.01748718918155142 0.0013847388357911307
251400000000.0 -0.01748808819474095 0.0013857235180268182 -0.5336165882329874 -0.815284176288987 -0.5335574842565282 -0.8152739074898863 -0.017466276686073017 0.0013734884422382445
251500000000.0 -0.017467060865755193 0.00137510026663486 -0.5343106147735903 -0.8148095092110169 -0.5342511133657436 -0.814800900063436 -0.017445553120374106 0.0013622413365394208
251600000000.0 -0.017446203826825723 0.0013644744659564911 -0.5350040464133791 -0.8143342114190744 -0.5349441938564916 -0.8143272761996779 -0.017425017581555447 0.0013509990643748
251700000000.0 -0.017425516359873775 0.0013538471425131797 -0.5356968807811542 -0.8138582848350688 -0.5356367238456359 -0.813853036538677 -0.017404669177176417 0.0013397631531460274
251800000000.0 -0.017404997771728388 0.0013432193094443817 -0.5363891154931604 -0.8133817314457721 -0.5363287014022285 -0.8133781817692363 -0.01738450702565433 0.001328535112914954
251900000000.0 -0.017384647394407725 0.0013325919678696316 -0.5370807481550259 -0.812904553303953 -0.5370201245489271 -0.8129027126309933 -0.01736453025662985 0.0013173164373735688
252000000000.0 -0.017364464585362623 0.0013219661082470523 -0.5377717763637472 -0.812426752529465 -0.5377109912634865 -0.812426629916489 -0.017344738011307096 0.0013061086048121381
252100000000.0 -0.01734444872766586 0.001311342711739182 -0.5384621977097108 -0.8119483313102616 -0.5384012994803148 -0.8119499344731761 -0.017325129442747774 0.0012949130790985532
252200000000.0 -0.0173245992301596 0.0013007227515880592 -0.5391520097787577 -0.8114692919033625 -0.5390910470920947 -0.8114726272053963 -0.0173057037161376 0.001283731310665197
252300000000.0 -0.01730491552756533 0.0012901071944897004 -0.5398412101542777 -0.8109896366357661 -0.5397802319514693 -0.8109947090763181 -0.01728646000902215 0.0012725647375021669
252400000000.0 -0.01728539708053002 0.0012794970019795664 -0.5405297964193464 -0.8105093679052879 -0.5404688518727926 -0.8105161811098108 -0.01726739751149311 0.0012614147861604776
252500000000.0 -0.01726604337565162 0.0012688931318039526 -0.5412177661589009 -0.8100284881813525 -0.5411569046339486 -0.8100370443922899 -0.01724851542636263 0.001250282872748429
252600000000.0 -0.017246853925436737 0.0012582965393110575 -0.5419051169619306 -0.8095470000057204 -0.541844387978217 -0.8095573000745054 -0.017229812969280285 0.001239170403946545
252700000000.0 -0.0172278282682272 0.001247708178821006 -0.5425918464237149 -0.8090649059931387 -0.5425312996162113 -0.809076949373265 -0.01721128936883113 0.0012280787780089254
252800000000.0 -0.017208965968070585 0.0012371290050099135 -0.543277952148084 -0.8085822088319459 -0.5432176372278734 -0.8085959935731267 -0.017192943866586055 0.0012170093857797623
252900000000.0 -0.017190266614556884 0.0012265599742826206 -0.5439634317497064 -0.8080989112846032 -0.543903398464522 -0.8081144340280224 -0.017174775717130317 0.0012059636117051375
253000000000.0 -0.017171729822597747 0.0012160020461350304 -0.5446482828563951 -0.8076150161881512 -0.5445885809509525 -0.8076322721628163 -0.017156784188042725 0.0011949428348383877
253100000000.0 -0.017153355232167433 0.001205456184521649 -0.5453325031114592 -0.8071305264546254 -0.5452731822876078 -0.807149509474833 -0.01713896855985099 0.0011839484298549227
253200000000.0 -0.01713514250800117 0.0011949233592063301 -0.5460160901760501 -0.8066454450713715 -0.5459572000527837 -0.8066661475352908 -0.01712132812594708 0.0011729817680545993
253300000000.0 -0.01711709133923822 0.0011844045471074858 -0.5466990417315367 -0.8061597751013154 -0.5466406318048846 -0.8061821879906933 -0.01710386219246683 0.001162044218367871
253400000000.0 -0.017099201439029703 0.0011739007336317177 -0.5473813554819131 -0.8056735196831535 -0.5473234750847534 -0.8056976325641555 -0.01708657007813467 0.0011511371483509919
253500000000.0 -0.017081472544095873 0.0011634129139965926 -0.5480630291561985 -0.8051866820314817 -0.5480057274180122 -0.8052124830566582 -0.01706945111407393 0.0011402619251792013
253600000000.0 -0.017063904414247204 0.001152942094539877 -0.5487440605108693 -0.8046992654368503 -0.5486873863174804 -0.8047267413482473 -0.01705250464358738 0.0011294199166341167
253700000000.0 -0.01704649683184774 0.0011424892940131177 -0.5494244473322912 -0.8042112732657354 -0.5493684492856181 -0.8042404093991425 -0.017035730021890214 0.001118612492078026
253800000000.0 -0.01702924960124963 0.0011320555448624539 -0.5501041874391734 -0.8037227089604629 -0.5500489138170219 -0.803753489250806 -0.017019126615823457 0.0011078410234251761
253900000000.0 -0.01701216254817384 0.001121641894490261 -0.5507832786850112 -0.8032335760390449 -0.5507287774009463 -0.8032659830269192 -0.017002693803521967 0.0010971068861009208
254000000000.0 -0.016995235519056184 0.0011112494064995497 -0.5514617189605582 -0.8027438780949421 -0.5514080375238851 -0.8027778929342897 -0.016986430974056544 0.0010864114599890356
254100000000.0 -0.0169784683803416 0.0011008791619169058 -0.5521395061962854 -0.8022536187967707 -0.5520866916721702 -0.8022892212637011 -0.01697033752703513 0.0010757561303675292
254200000000.0 -0.016961861017746008 0.0010905322603990664 -0.5528166383648507 -0.8017628018879123 -0.5527647373346168 -0.8017999703906622 -0.016954412872174803 0.0010651422888339457
254300000000.0 -0.01694541333546918 0.001080209821413232 -0.5534931134835607 -0.8012714311860715 -0.5534421720051891 -0.8013101427761036 -0.01693865642883988 0.0010545713342140985
254400000000.0 -0.0169291252553763 0.0010699129853963608 -0.5541689296168343 -0.8007795105827527 -0.5541189931857058 -0.800819740966987 -0.01692306762555081 0.0010440446734572401
254500000000.0 -0.016912996716126127 0.0010596429148892659 -0.5548440848786682 -0.8002870440426628 -0.5547951983885742 -0.8003287675968389 -0.016907645899450457 0.0010335637225139572
254600000000.0 -0.0168970276722712 0.001049400795645991 -0.555518577435085 -0.7997940356030411 -0.5554707851395427 -0.7998372253862035 -0.01689239069574912 0.00102312990720023
254700000000.0 -0.016881218093317725 0.0010391878377153999 -0.5561924055065798 -0.7993004893729171 -0.5561457509804839 -0.7993451171430189 -0.016877301467138277 0.0010127446640405954
254800000000.0 -0.016865567962736246 0.001029005276496775 -0.5568655673705486 -0.7988064095322974 -0.5568200934721903 -0.7988524457629141 -0.016862377673157875 0.001002409441095005
254900000000.0 -0.016850077276951893 0.001018854373762353 -0.5575380613637168 -0.7983118003312752 -0.557493810197202 -0.7983592142294182 -0.01684761877955556 0.000992125698763966
255000000000.0 -0.01683474604428519 0.0010087364186548568 -0.5582098858845415 -0.7978166660890689 -0.5581668987626431 -0.7978654256140958 -0.01683302425759933 0.0009818949105754311
255100000000.0 -0.016819574283864158 0.0009986527286497049 -0.5588810393956002 -0.7973210111929915 -0.5588393568030715 -0.797371083076596 -0.016818593583368686 0.0009717185639473947
255200000000.0 -0.016804562024492386 0.0009886046504867525 -0.5595515204259723 -0.7968248400973471 -0.559511181983355 -0.7968761898646202 -0.016804326237009292 0.0009615981609320829
255300000000.0 -0.01678970930349715 0.000978593561066458 -0.5602213275735667 -0.7963281573222484 -0.560182372001528 -0.7963807493138024 -0.016790221701971194 0.000951535218930544
255400000000.0 -0.016775016165532643 0.0009686208683178779 -0.560890459507467 -0.7958309674523695 -0.5608529245916898 -0.7958847648475041 -0.016776279464209058 0.0009415312713938379
255500000000.0 -0.016760482661352005 0.000958688012022059 -0.5615589149702316 -0.795333275135635 -0.5615228375268934 -0.7953882399765405 -0.016762499011357616 0.0009315878684868566
255600000000.0 -0.016746108846554645 0.0009487964646009645 -0.5622266927801621 -0.7948350850818164 -0.562192108622034 -0.7948911782987942 -0.016748879831884438 0.00092170657772996
255700000000.0 -0.016731894780298694 0.0009389477318809669 -0.5628937918335529 -0.7943364020610896 -0.562860735736741 -0.7943935834987735 -0.01673542141421564 0.0009118889846276248
255800000000.0 -0.0167178405239826 0.0009291433537954211 -0.5635602111068988 -0.7938372309024991 -0.5635287167782665 -0.7938954593470656 -0.016722123245833245 0.000902136693242529
255900000000.0 -0.016703946139900068 0.0009193849050694996 -0.5642259496590933 -0.7933375764923554 -0.5641960497043892 -0.7933968096997028 -0.016708984812349864 0.0008924513267674934
256000000000.0 -0.01669021168987029 0.0009096739958553594 -0.56489100663355 -0.7928374437725861 -0.5648627325262693 -0.792897638497464 -0.016696005596565564 0.0008828345280582986
256100000000.0 -0.016676637233839792 0.000900012272321247 -0.5655553812603381 -0.7923368377389949 -0.5655287633113466 -0.7923979497650648 -0.01668318507749573 0.0008732879601298243
256200000000.0 -0.016663222828454644 0.0008904014172067647 -0.5662190728582374 -0.7918357634394704 -0.5661941401861887 -0.7918977476102825 -0.01667052272937422 0.0008638133066314252
256300000000.0 -0.01664996852561863 0.000880843150334541 -0.5668820808367689 -0.7913342259721289 -0.5668588613393349 -0.7913970362229857 -0.016658018020647043 0.000854412272290309
256400000000.0 -0.016636874371021206 0.0008713392290753094 -0.5675444046981867 -0.7908322304833808 -0.5675229250241373 -0.7908958198740761 -0.01664567041293638 0.0008450865833197736
256500000000.0 -0.01662394040264222 0.00086189144876332 -0.5682060440394182 -0.7903297821659501 -0.5681863295615689 -0.7903941029143503 -0.016633479359984375 0.0008358379877897325
256600000000.0 -0.01661116664924732 0.0008525016430850964 -0.5688669985539638 -0.7898268862568275 -0.5688490733430193 -0.7898918897732858 -0.01662144430658886 0.0008266682559819999
256700000000.0 -0.01659855312885316 0.0008431716843978619 -0.5695272680337377 -0.7893235480351589 -0.569511154833056 -0.789389184957722 -0.01660956468751321 0.0008175791806890347
256800000000.0 -0.01658609984717711 0.0008339034840211243 -0.5701868523708719 -0.788819772820072 -0.5701725725721771 -0.7888859930504722 -0.01659783992637673 0.000808572577494365
256900000000.0 -0.01657380679606929 0.0008246989924757208 -0.5708457515594635 -0.7883155659684592 -0.5708333251795231 -0.7883823187088516 -0.016586269434536425 0.000799650285017077
257000000000.0 -0.0165616739519415 0.0008155601996639368 -0.5715039656972581 -0.7878109328726836 -0.5714934113555544 -0.7878781666631134 -0.016574852609956697 0.0007908141651054797
257100000000.0 -0.01654970127416398 0.0008064891350218086 -0.5721614949873042 -0.7873058789582524 -0.5721528298847198 -0.7873735417148194 -0.01656358883605567 0.0007820661030177887
257200000000.0 -0.016537888703459628 0.0007974878676033811 -0.5728183397395193 -0.7868004096814186 -0.5728115796380578 -0.7868684487351133 -0.016552477480544118 0.0007734080075461603
257300000000.0 -0.016526236160285063 0.0007885585061326477 -0.5734745003722175 -0.786294530526725 -0.5734696595757808 -0.7863628926629094 -0.01654151789425255 0.0007648418111197612
257400000000.0 -0.016514743543204903 0.0007797031989885083 -0.5741299774135792 -0.7857882470045268 -0.5741270687498223 -0.7858568785030321 -0.016530709409951667 0.0007563694698555578
257500000000.0 -0.01650341072725112 0.0007709241341546813 -0.574784771503041 -0.7852815646484365 -0.5747838063063205 -0.7853504113242415 -0.01652005134115271 0.0007479929635826959
257600000000.0 -0.016492237562279254 0.0007622235391117336 -0.5754388833926486 -0.7847744890127281 -0.575439871488088 -0.7848434962572008 -0.016509542980910768 0.0007397142958247979
257700000000.0 -0.016481223871321313 0.0007536036806728789 -0.5760923139483174 -0.7842670256696963 -0.5760952636370028 -0.7843361384923551 -0.016499183600616567 0.0007315354937364258
257800000000.0 -0.016470369448920424 0.0007450668647920474 -0.5767450641510483 -0.783759180206977 -0.5767499821963753 -0.7838283432777517 -0.016488972448769963 0.0007234586080238684
257900000000.0 -0.016459674059490025 0.0007366154362835307 -0.577397135098074 -0.7832509582248182 -0.5774040267132565 -0.7833201159167703 -0.01647890874977852 0.0007154857127912052
258000000000.0 -0.01644913743564041 0.0007282517785234124 -0.5780485280039193 -0.7827423653333031 -0.5780573968406809 -0.7828114617657819 -0.016468991702714365 0.0007076189053778903
258100000000.0 -0.016438759276527708 0.0007199783130808954 -0.5786992442014177 -0.7822334071495555 -0.5787100923398764 -0.7823023862317484 -0.01645922048009888 0.0006998603061405793
258200000000.0 -0.016428539246190362 0.00071179749930698 -0.5793492851426398 -0.7817240892948788 -0.5793621130824006 -0.78179289476973 -0.016449594226663616 0.0006922120582034565
258300000000.0 -0.01641847697189877 0.000703711833861747 -0.5799986523997495 -0.7812144173918782 -0.580013459052219 -0.7812829928803433 -0.016440112058127072 0.0006846763271590985
258400000000.0 -0.016408572042500326 0.0006957238501964925 -0.5806473476658026 -0.7807043970615547 -0.5806641303477319 -0.7807726861071462 -0.016430773059957913 0.00067725530073581
258500000000.0 -0.01639882400678325 0.000687836117983967 -0.5812953727554422 -0.7801940339203385 -0.5813141271837163 -0.7802619800339444 -0.016421576286155506 0.0006699511884254477
258600000000.0 -0.01638923237182501 0.0006800512424898185 -0.5819427296055593 -0.7796833335771285 -0.5819634498932362 -0.7797508802820569 -0.01641252075801116 0.0006627662210634352
258700000000.0 -0.016379796601376645 0.0006723718639027036 -0.5825894202758392 -0.7791723016302734 -0.5826120989294501 -0.779239392507491 -0.016403605462896008 0.0006557026503799248
258800000000.0 -0.016370516114237465 0.0006648006565956971 -0.5832354469492462 -0.7786609436645405 -0.5832600748673662 -0.7787275223980766 -0.016394829353040468 0.0006487627484928077
258900000000.0 -0.016361390282646625 0.0006573403283582664 -0.5838808119324451 -0.7781492652480712 -0.5839073784055374 -0.7782152756705409 -0.016386191344318148 0.0006419488073839098
259000000000.0 -0.01635241843069719 0.0006499936195535432 -0.584525517656111 -0.7776372719292811 -0.5845540103676528 -0.7777026580675029 -0.016377690315050663 0.0006352631383089166
259100000000.0 -0.016343599832750095 0.0006427633022390318 -0.5851695666751874 -0.7771249692337825 -0.5851999717040821 -0.7771896753544436 -0.01636932510480639 0.0006287080711863728
259200000000.0 -0.016334933711870257 0.000635652179233019 -0.5858129616690564 -0.7766123626612494 -0.5858452634933373 -0.7766763333165938 -0.016361094513212028 0.0006222859539387633
259300000000.0 -0.016326419238287433 0.0006286630831240695 -0.5864557054416218 -0.7760994576823014 -0.5864898869434455 -0.7761626377557951 -0.01635299729878354 0.0006159991517897019
259400000000.0 -0.01631805552786734 0.0006217988752365737 -0.5870978009213141 -0.7755862597353443 -0.5871338433932491 -0.7756485944872861 -0.01634503217776057 0.0006098500465285986
259500000000.0 -0.01630984164060399 0.0006150624445423939 -0.5877392511610182 -0.7750727742234235 -0.5877771343136308 -0.7751342093364646 -0.016337197822953325 0.0006038410357286743
259600000000.0 -0.016301776579136864 0.0006084567065246166 -0.588380059337921 -0.7745590065110471 -0.5884197613086538 -0.7746194881355806 -0.01632949286260886 0.0005979745319311841
259700000000.0 -0.01629385928729362 0.0006019846019884947 -0.5890202287532456 -0.7740449619210165 -0.5890617261165906 -0.7741044367204041 -0.016321915879292374 0.0005922529617841661
259800000000.0 -0.016286088648650186 0.0005956490958262392 -0.589659762831959 -0.773530645731253 -0.5897030306109211 -0.7735890609268488 -0.01631446540877998 0.00058667876514594
259900000000.0 -0.016278463485126772 0.0005894531757327142 -0.590298665122342 -0.7730160631716076 -0.5903436768011914 -0.773073366587541 -0.01630713993897441 0.0005812543941487186
260000000000.0 -0.016270982555601835 0.0005833998508723688 -0.5909369392955061 -0.7725012194206832 -0.5909836668338139 -0.7725573595283717 -0.016299937908836222 0.0005759823122235548
260100000000.0 -0.01626364455456354 0.0005774921504994607 -0.5915745891448155 -0.7719861196026561 -0.5916230029927673 -0.7720410455650022 -0.016292857707338227 0.0005708649930872229
260200000000.0 -0.01625644811078764 0.0005717331225289443 -0.5922116185852327 -0.7714707687840912 -0.5922616877002123 -0.7715244304993325 -0.01628589767243865 0.0005659049196889479
260300000000.0 -0.016249391786045946 0.0005661258320661803 -0.5928480316525601 -0.770955171970791 -0.592899723516999 -0.7710075201159675 -0.016279056090075957 0.0005611045831241137
260400000000.0 -0.016242474073853597 0.0005606733598901178 -0.5934838325026291 -0.7704393341046085 -0.5935371131431113 -0.7704903201786072 -0.01627233119319005 0.0005564664815110781
260500000000.0 -0.016235693398245005 0.0005553788008825342 -0.594119025410379 -0.7699232600603195 -0.5941738594179918 -0.7699728364264641 -0.016265721160766963 0.000551993118822026
260600000000.0 -0.01622904811258856 0.0005502452624310625 -0.5947536147688675 -0.7694069546424703 -0.5948099653207846 -0.7694550745706162 -0.01625922411690533 0.0005476870036935462
260700000000.0 -0.016222536498438682 0.0005452758627694288 -0.5953876050881792 -0.7688904225822664 -0.5954454339704721 -0.768937040290372 -0.016252838129914224 0.0005435506481860343
260800000000.0 -0.016216156764427097 0.0005404737292972346 -0.5960210009942779 -0.7683736685344533 -0.5960802686259349 -0.7684187392295833 -0.01624656121143859 0.0005395865665262304
260900000000.0 -0.016209907045195204 0.0005358419968330121 -0.5966538072277493 -0.7678566970742426 -0.5967144726858935 -0.7679001769929767 -0.01624039131561286 0.0005357972737925107
261000000000.0 -0.016203785400357607 0.0005313838058528993 -0.597286028642478 -0.7673395126942567 -0.5973480496887672 -0.7673813591424645 -0.01623432633823677 0.0005321852845915212
261100000000.0 -0.016197789813528183 0.0005271023006676666 -0.5979176702042367 -0.7668221198014644 -0.5979810033124302 -0.7668622911934128 -0.016228364115999885 0.000528753111681214
261200000000.0 -0.016191918191365444 0.000523000627577828 -0.5985487369891845 -0.7663045227141879 -0.5986133373738619 -0.7663429786109479 -0.01622250242571643 0.0005255032645760656
261300000000.0 -0.01618616836268155 0.0005190819329854037 -0.5991792341823075 -0.7657867256591193 -0.5992450558287179 -0.7658234268062378 -0.016216738983607877 0.0005224382481170519
261400000000.0 -0.016180538077594366 0.0005153493614605072 -0.5998091670757528 -0.7652687327683514 -0.5998761627707795 -0.7653036411327575 -0.016211071444622784 0.0005195605610005795
261500000000.0 -0.016175025006712057 0.000511806053792433 -0.600438541067094 -0.7647505480764799 -0.6005066624313157 -0.7647836268825888 -0.016205497401768913 0.0005168726942982066
261600000000.0 -0.016169626740387008 0.0005084551449897628 -0.6010673616575266 -0.7642321755177003 -0.6011365591783487 -0.764263389282687 -0.01620001438550814 0.0005143771299299073
261700000000.0 -0.01616434078800371 0.0005052997622518986 -0.6016956344499591 -0.7637136189229664 -0.6017658575158019 -0.7637429334911724 -0.016194619863171996 0.0005120763391144352
261800000000.0 -0.016159164577321687 0.0005023430229155883 -0.6023233651470544 -0.7631948820171814 -0.6023945620825703 -0.7632222645936323 -0.016189311238416666 0.0005099727807970851
261900000000.0 -0.016154095453875014 0.000499588032362757 -0.6029505595491882 -0.762675968416438 -0.6030226776514847 -0.7627013875994291 -0.016184085850724943 0.0005080689000455078
262000000000.0 -0.016149130680414285 0.0004970378818995722 -0.6035772235523063 -0.7621568816252807 -0.6036502091281546 -0.7621803074380131 -0.01617894097493441 0.0005063671264171237
262100000000.0 -0.016144267436410602 0.0004946956466212089 -0.6042033631457491 -0.7616376250340406 -0.6042771615497508 -0.7616590289552707 -0.01617387382081747 0.0005048698723196653
262200000000.0 -0.016139502817608703 0.00049256438322767 -0.6048289844099543 -0.7611182019162026 -0.604903540083638 -0.7611375569098778 -0.01616888153269736 0.0005035795313221071
262300000000.0 -0.016134833835639146 0.0004906471278320902 -0.6054540935141441 -0.7605986154258194 -0.605529350025973 -0.7606158959696765 -0.016163961189104223 0.0005024984764628002
262400000000.0 -0.016130257417680635 0.0004889468937388328 -0.6060786967138825 -0.7600788685949939 -0.606154596800133 -0.7600940507080853 -0.01615910980247754 0.0005016290585293742
262500000000.0 -0.016125770406191228 0.0004874666692005327 -0.6067028003486015 -0.7595589643313945 -0.6067792859550979 -0.7595720256005223 -0.01615432431891243 0.0005009736043187928
262600000000.0 -0.016121369558677368 0.0004862094151507079 -0.6073264108390533 -0.7590389054158391 -0.607403423163722 -0.7590498250208695 -0.016149601617942825 0.0005005344148760765
262700000000.0 -0.016117051547543917 0.00048517806292508133 -0.6079495346846671 -0.7585186944999363 -0.6080270142208798 -0.7585274532379683 -0.016144938512378464 0.0005003137637212677
262800000000.0 -0.016112812959990227 0.0004843755119526293 -0.6085721784608783 -0.7579983341037774 -0.6086500650415576 -0.7580049144121409 -0.016140331748186968 0.0005003138950478614
262900000000.0 -0.016108650297965665 0.0004838046274398493 -0.6091943488163739 -0.7574778266137026 -0.609272581658829 -0.757482212591766 -0.016135778004410423 0.0005005370219154623
263000000000.0 -0.0161045599781909 0.00048346823804207507 -0.6098160524702675 -0.7569571742801144 -0.6098945702217249 -0.7569593517098762 -0.01613127389314189 0.0005009853244285008
263100000000.0 -0.016100538332241662 0.0004833691335084363 -0.6104372962092272 -0.7564363792153685 -0.6105160369930279 -0.7564363355808116 -0.01612681595954641 0.0005016609478889419
263200000000.0 -0.016096581606684056 0.00048351006232757787 -0.6110580868845318 -0.7559154433917251 -0.6111369883469583 -0.7559131678969135 -0.016122400681921594 0.0005025660009492903
263300000000.0 -0.01609268596328704 0.00048389372935609456 -0.6116784314090824 -0.7553943686393739 -0.6117574307667851 -0.7553898522252731 -0.016118024471818402 0.00050370255374707
263400000000.0 -0.016088847479284643 0.00048452279344414446 -0.6122983367543418 -0.7548731566445154 -0.6123773708423255 -0.7548663920045146 -0.016113683674202055 0.0005050726360351525
263500000000.0 -0.01608506214771089 0.00048539986504433826 -0.6129178099472218 -0.7543518089475258 -0.6129968152673617 -0.7543427905416461 -0.01610937456766791 0.0005066782352929312
263600000000.0 -0.0160813258777886 0.0004865275038297616 -0.6135368580669341 -0.7538303269412023 -0.6136157708369835 -0.7538190510089727 -0.016105093364701385 0.0005085212948464669
263700000000.0 -0.016077634495397477 0.0004879082162900669 -0.6141554882417607 -0.7533087118690514 -0.6142342444448148 -0.7532951764410395 -0.016100836211995213 0.0005106037119620914
263800000000.0 -0.01607398374358991 0.0004895444533407616 -0.6147737076458027 -0.7527869648236922 -0.6148522430801798 -0.752771169731667 -0.01609659919081238 0.0005129273359510257
263900000000.0 -0.016070369283180827 0.0004914386079268847 -0.6153915234956592 -0.7522650867453011 -0.6154697738251641 -0.7522470336310231 -0.016092378317398934 0.0005154939662654977
264000000000.0 -0.016066786693403518 0.000493593012624388 -0.6160089430470748 -0.7517430784201727 -0.6160868438516082 -0.7517227707427904 -0.016088169543454104 0.000518305350588712
264100000000.0 -0.01606323147262826 0.0004960099372482618 -0.616625973591536 -0.7512209404793119 -0.6167034604180069 -0.7511983835213579 -0.016083968756648397 0.0005213631829272551
264200000000.0 -0.016059699039139813 0.0004986915864637811 -0.6172426224528296 -0.7506986733971642 -0.6173196308663367 -0.7506738742691346 -0.01607977178118596 0.0005246691017023706
264300000000.0 -0.01605618473199755 0.0005016400974063931 -0.6178588969835582 -0.750176277490378 -0.6179353626188003 -0.7501492451338909 -0.016075574378439823 0.0005282246878451841
264400000000.0 -0.016052683811941703 0.0005048575373095562 -0.6184748045616162 -0.7496537529166721 -0.6185506631744915 -0.7496244981061932 -0.016071372247612944 0.000532031462895064
264500000000.0 -0.016049191462378244 0.0005083459011333204 -0.6190903525866324 -0.749131099673801 -0.6191655401059853 -0.7490996350169242 -0.016067161026472102 0.0005360908870919954
264600000000.0 -0.016045702790428197 0.0005121071092199341 -0.619705548476387 -0.7486083175985715 -0.619780001055869 -0.748574657534857 -0.01606293629212633 0.0005404043574914678
264700000000.0 -0.0160422128280317 0.0005161430049529129 -0.6203203996631803 -0.7480854063659912 -0.6203940537331771 -0.7480495671643461 -0.01605869356185367 0.0005449732060756469
264800000000.0 -0.01603871653313315 0.0005204553524296655 -0.6209349135901796 -0.7475623654884476 -0.6210077059097701 -0.7475243652430509 -0.016054428293989478 0.0005497986978722201
264900000000.0 -0.016035208790926497 0.0005250458341598585 -0.6215490977077486 -0.7470391943150263 -0.6216209654166507 -0.7469990529397909 -0.01605013588886685 0.0005548820290901052
265000000000.0 -0.01603168441515309 0.0005299160487720774 -0.6221629594697394 -0.7465158920309073 -0.6222338401402069 -0.7464736312524775 -0.016045811689794243 0.000560224325259693
265100000000.0 -0.01602813814948694 0.0005350675087469418 -0.6227765063297638 -0.7459924576568138 -0.6228463380183881 -0.7459481010060975 -0.016041450984109168 0.00056582663938733
265200000000.0 -0.0160245646689658 0.0005405016381712192 -0.6233897457374428 -0.7454688900486068 -0.6234584670368221 -0.745422462850841 -0.01603704900426646 0.0005716899501263856
265300000000.0 -0.016020958581493043 0.0005462197705194236 -0.6240026851346565 -0.744945187896934 -0.6240702352248911 -0.7448967172602867 -0.016032600928982347 0.0005778151599652354
265400000000.0 -0.016017314429410026 0.0005522231464486038 -0.6246153319517442 -0.744421349726982 -0.624681650651717 -0.7443708645296909 -0.016028101884440284 0.0005842030934201227
265500000000.0 -0.01601362669112621 0.0005585129116371526 -0.6252276936037241 -0.7438973738983184 -0.6252927214221201 -0.7438449047743677 -0.016023546945539115 0.0005908544952641731
265600000000.0 -0.016009889782804498 0.0005650901146396435 -0.625839777486482 -0.743373258604835 -0.6259034556725166 -0.7433188379281795 -0.016018931137188674 0.0005977700287606094
265700000000.0 -0.01600609806012577 0.0005719557047785522 -0.6264515909729581 -0.7428490018747684 -0.6265138615667607 -0.7427926637421047 -0.016014249435673197 0.0006049502739242205
265800000000.0 -0.01600224582010222 0.0005791105300682858 -0.6270631414093246 -0.7423246015708317 -0.6271239472919473 -0.742266381782929 -0.01600949677004863 0.000612395725806579
265900000000.0 -0.015998327302961232 0.0005865553351718371 -0.6276744361111659 -0.7418000553904267 -0.6277337210541676 -0.7417399914320185 -0.016004668023601575 0.0006201067928004507
266000000000.0 -0.015994336694081096 0.0005942907593923951 -0.6282854823596504 -0.7412753608659586 -0.6283431910742231 -0.7412134918842102 -0.015999758035353737 0.0006280837949697408
266100000000.0 -0.015990268125995615 0.0006023173347068113 -0.6288962873977066 -0.7407505153652393 -0.6289523655832969 -0.7406868821467947 -0.015994761601618047 0.0006363269624112897
266200000000.0 -0.015986115680453227 0.0006106354838355092 -0.6295068584261907 -0.7402255160919899 -0.6295612528185817 -0.740160161038618 -0.015989673477604237 0.0006448364336395948
266300000000.0 -0.015981873390535965 0.0006192455183483827 -0.6301172026000921 -0.7397003600864301 -0.6301698610189017 -0.7396333271892722 -0.015984488379072705 0.000653612253997635
266400000000.0 -0.015977535242834025 0.0006281476368277897 -0.6307273270247076 -0.7391750442259744 -0.6307781984202643 -0.7391063790384145 -0.015979200984034537 0.0006626543741109072
266500000000.0 -0.01597309517968392 0.0006373419230566784 -0.6313372387518498 -0.7386495652260132 -0.6313862732514083 -0.7385793148351816 -0.0159738059345071 0.000671962648357079
266600000000.0 -0.015968547101454934 0.0006468283442739095 -0.6319469447760628 -0.7381239196407765 -0.6319940937293171 -0.7380521326377029 -0.01596829783830744 0.0006815368333866508
266700000000.0 -0.0159638848688926 0.0006566067494515459 -0.6325564520308525 -0.7375981038643263 -0.6326016680547102 -0.7375248303127593 -0.015962671270895585 0.0006913765866565152
266800000000.0 -0.01595910230552216 0.0006666768676506119 -0.6331657673849342 -0.7370721141316166 -0.6332090044075119 -0.7369974055355285 -0.015956920777269235 0.0007014814650247399
266900000000.0 -0.01595419320009848 0.0006770383063966844 -0.6337748976385021 -0.7365459465196316 -0.6338161109423049 -0.7364698557894265 -0.015951040873897804 0.0007118509233565225
267000000000.0 -0.015949151309109854 0.00068769055013892 -0.6343838495195316 -0.7360195969486578 -0.6344229957837779 -0.7359421783661007 -0.015945026050701052 0.000722484313195259
267100000000.0 -0.01594397035932933 0.0006986329587364152 -0.6349926296800694 -0.7354930611836232 -0.6350296670221259 -0.7354143703655164 -0.015938870773069373 0.0007333808814514885
267200000000.0 -0.015938644050427705 0.0007098647660135239 -0.6356012446926046 -0.7349663348355199 -0.6356361327084902 -0.7348864286961443 -0.015932569483940687 0.000744539769142504
267300000000.0 -0.015933166057620806 0.0007213850783708977 -0.6362097010464277 -0.7344394133629476 -0.636242400850357 -0.7343583500752937 -0.01592611660590053 0.0007559600101767568
267400000000.0 -0.01592753003436645 0.0007331928734454028 -0.6368180051440424 -0.7339122920737199 -0.636848479406967 -0.733830131029532 -0.01591950654333124 0.0007676405301702287
267500000000.0 -0.015921729615119406 0.0007452869988498244 -0.6374261632976052 -0.7333849661265672 -0.6374543762847221 -0.7333017678952292 -0.01591273368460899 0.000779580145330158
267600000000.0 -0.015915758418115843 0.0007576661709467582 -0.6380341817253936 -0.7328574305329434 -0.638060099332582 -0.7327732568192266 -0.01590579240432913 0.0007917775613550736
267700000000.0 -0.015909610048206287 0.0007703289737052283 -0.6386420665483371 -0.7323296801589032 -0.6386656563374968 -0.7322445937596087 -0.01589867706557106 0.000804231372405671
267800000000.0 -0.015903278099738814 0.0007832738576118262 -0.6392498237865629 -0.7318017097270696 -0.6392710550198112 -0.7317157744865915 -0.01589138202221241 0.0008169400601119027
267900000000.0 -0.015896756159464055 0.0007964991386541521 -0.6398574593560087 -0.731273513818702 -0.6398763030287137 -0.7311867945835389 -0.01588390162125858 0.0008299019926396732
268000000000.0 -0.015890037809503755 0.0008100029973574099 -0.6404649790650502 -0.7307450868758304 -0.6404814079376637 -0.7306576494480801 -0.015876230205233145 0.0008431154237931419
268100000000.0 -0.015883116630326186 0.0008237834778965555 -0.6410723886112216 -0.7302164232034813 -0.6410863772398784 -0.7301283342933435 -0.01586836211457306 0.0008565784921764355
268200000000.0 -0.015875986203790025 0.0008378384872881951 -0.6416796935779412 -0.7296875169719971 -0.6416912183438018 -0.7295988441493213 -0.015860291690086945 0.0008702892204224995
268300000000.0 -0.015868640116196715 0.000852165794624585 -0.6422868994313199 -0.729158362219415 -0.6422959385686201 -0.7290691738643238 -0.015852013275421177 0.0008842455144434867
268400000000.0 -0.015861071961388553 0.0008667630304020315 -0.6428940115170163 -0.7286289528539492 -0.6429005451397994 -0.7285393181065719 -0.015843521219570018 0.0008984451627635248
268500000000.0 -0.01585327534387418 0.0008816276859203554 -0.6435010350571323 -0.7280992826565458 -0.6435050451846365 -0.7280092713658959 -0.015834809879410192 0.0009128858359026975
268600000000.0 -0.015845243881985906 0.0008967571127306468 -0.6441079751471933 -0.7275693452834999 -0.6441094457278659 -0.7274790279555341 -0.01582587362226959 0.0009275650857967503
268700000000.0 -0.015836971211051338 0.000912148522195345 -0.6447148367531803 -0.7270391342691657 -0.6447137536872914 -0.7269485820140549 -0.01581670682850372 0.0009424803453088727
268800000000.0 -0.015828450986614836 0.0009277989850878913 -0.6453216247086115 -0.7265086430287535 -0.6453179758694483 -0.7264179275074126 -0.015807303894127604 0.0009576289277690173
268900000000.0 -0.01581967688766157 0.000943705431289077 -0.6459283437117074 -0.7259778648611557 -0.6459221189653186 -0.7258870582310616 -0.01579765923344876 0.0009730080265883173
269000000000.0 -0.015810642619872375 0.0009598646495552835 -0.6465349983226079 -0.7254467929519047 -0.6465261895460795 -0.7253559678122422 -0.015787767281729374 0.000988614714933833
269100000000.0 -0.015801341918898565 0.0009762732873590181 -0.6471415929606743 -0.7249154203761466 -0.6471301940589135 -0.7248246497123263 -0.01577762249787401 0.0010044459454547864
269200000000.0 -0.01579176855365527 0.0009929278508125636 -0.6477481319018416 -0.7243837401017077 -0.6477341388228472 -0.724293097229292 -0.015767219367133073 0.001020498550079197
269300000000.0 -0.015781916329625625 0.0010098247046744855 -0.6483546192760642 -0.7238517449922492 -0.6483380300246656 -0.7237613035003255 -0.015756552403823006 0.001036769239873543
269400000000.0 -0.01577177909219186 0.0010269600724260538 -0.6489610590648184 -0.7233194278104329 -0.6489418737148632 -0.72322926150448 -0.01574561615407202 0.0010532546049580127
269500000000.0 -0.015761350729963684 0.0010443300364315138 -0.6495674550986866 -0.7227867812212088 -0.6495456758036584 -0.7226969640654933 -0.015734405198571732 0.0010699511144874742
269600000000.0 -0.015750625178127475 0.0010619305381940312 -0.6501738110550261 -0.7222537977951123 -0.6501494420570788 -0.7221644038546647 -0.0157229141553468 0.0010868551167136434
269700000000.0 -0.015739596421805495 0.0010797573786633025 -0.6507801304557077 -0.7217204700116676 -0.650753178093097 -0.7216315733938705 -0.015711137682544316 0.0011039628390794804
269800000000.0 -0.015728258499410896 0.0010978062186536221 -0.65138641666494 -0.7211867902628123 -0.6513568893778421 -0.7210984650586532 -0.015699070481218207 0.0011212703884117135
269900000000.0 -0.015716605506020873 0.0011160725793290796 -0.6519926728871692 -0.7206527508563926 -0.6519605812218682 -0.7205650710814233 -0.01568670729814097 0.0011387737511597865
270000000000.0 -0.015704631596736945 0.0011345518427744957 -0.6525989021650744 -0.7201183440197174 -0.6525642587765123 -0.7200313835547598 -0.015674042928607 0.0011564687937080675
270100000000.0 -0.015692330990060184 0.0011532392526598528 -0.6532051073776365 -0.7195835619031393 -0.653167927030312 -0.7194973944347911 -0.015661072219254425 0.0011743512627631566
270200000000.0 -0.015679697971258875 0.0011721299149648936 -0.6538112912383017 -0.7190483965837224 -0.6537715908055065 -0.7189630955446977 -0.015647790070887953 0.0011924167857864394
270300000000.0 -0.015666726895730673 0.0011912187988116552 -0.654417456293221 -0.7185128400689257 -0.6543752547546112 -0.7184284785782866 -0.015634191441302975 0.0012106608715180354
270400000000.0 -0.015653412192365015 0.0012105007373718528 -0.655023604919601 -0.7179768843003369 -0.6549789233570875 -0.7178935351036533 -0.015620271348116064 0.0012290789105606759
270500000000.0 -0.01563974836688061 0.0012299704288521141 -0.6556297393241197 -0.717440521157467 -0.6555826009160829 -0.7173582565669564 -0.015606024871579239 0.0012476661760264858
270600000000.0 -0.01562573000518199 0.0012496224375774902 -0.6562358615414493 -0.7169037424615509 -0.6561862915552622 -0.7168226342962453 -0.015591447157419534 0.0012664178242640272
270700000000.0 -0.015611351776673707 0.0012694511951384937 -0.6568419734328631 -0.7163665399794232 -0.6567899992157288 -0.7162866595054043 -0.015576533419649725 0.0012853288956367493
270800000000.0 -0.015596608437582878 0.0012894510016545043 -0.6574480766849511 -0.715828905427413 -0.6573937276530466 -0.7157503232981683 -0.01556127894338965 0.0013043943153996462
270900000000.0 -0.015581494834250618 0.0013096160270758721 -0.6580541728084006 -0.7152908304752582 -0.6579974804343295 -0.7152136166722042 -0.015545679087670197 0.0013236088946052228
271000000000.0 -0.01556600590641326 0.001329940312622973 -0.658660263136905 -0.7147523067500667 -0.6586012609354571 -0.7146765305232833 -0.015529729288239475 0.0013429673311246013
271100000000.0 -0.015550136690453242 0.0013504177722654903 -0.6592663488261544 -0.7142133258403078 -0.6592050723383779 -0.7141390556495378 -0.015513425060339847 0.0013624642107012302
271200000000.0 -0.015533882322641773 0.0013710421943019452 -0.6598724308529085 -0.7136738792998274 -0.6598089176284926 -0.713601182755781 -0.015496762001499088 0.0013820940080857573
271300000000.0 -0.01551723804234663 0.001391807243035222 -0.6604785100141984 -0.7131339586518659 -0.6604127995921769 -0.7130629024578834 -0.015479735794289927 0.001401851088256972
271400000000.0 -0.015500199195204081 0.0014127064605085795 -0.6610845869265971 -0.7125935553931301 -0.6610167208143718 -0.7125242052872502 -0.015462342209067195 0.0014217297076870835
271500000000.0 -0.015482761236282483 0.0014337332683316492 -0.6616906620256111 -0.7120526609978629 -0.6616206836763109 -0.71198508169534 -0.015444577106710237 0.0014417240156856259
271600000000.0 -0.015464919733196265 0.0014548809696033592 -0.6622967355651508 -0.7115112669219269 -0.6622246903533258 -0.7114455220582477 -0.015426436441328056 0.0014618280558242392
271700000000.0 -0.015446670369196188 0.0014761427508931644 -0.6629028076171221 -0.7109693646069154 -0.6628287428127899 -0.7109055166813653 -0.015407916262951165 0.00148203576741359
271800000000.0 -0.01542800894621492 0.001497511684316495 -0.6635088780711043 -0.7104269454842634 -0.6634328428121544 -0.7103650558040836 -0.015389012720194472 0.0015023409870541956
271900000000.0 -0.015408931387881613 0.0015189807297002057 -0.664114946634128 -0.70988400097936 -0.6640369918971013 -0.7098241296045468 -0.01536972206290189 0.0015227374502717796
272000000000.0 -0.01538943374249853 0.0015405427367938822 -0.6647210128305641 -0.7093405225156919 -0.6646411913998167 -0.709282728204483 -0.015350040644767554 0.0015432187931824623
272100000000.0 -0.015369512185965283 0.0015621904476042787 -0.6653270760020957 -0.7087965015189567 -0.6652454424373662 -0.7087408416740543 -0.015329964925917346 0.0015637785542743812
272200000000.0 -0.015349163024662086 0.0015839164987725821 -0.6659331353078217 -0.708251929421208 -0.6658497459102161 -0.7081984600367792 -0.015309491475467162 0.0015844101762154466
272300000000.0 -0.015328382698300133 0.0016057134240471782 -0.6665391897244218 -0.7077067976649705 -0.6664541025008339 -0.7076555732744773 -0.015288616974059421 0.001605107007753737
272400000000.0 -0.01530716778269546 0.0016275736568270806 -0.667145238046458 -0.707161097707368 -0.667058512672448 -0.7071121713322686 -0.015267338216342605 0.0016258623056705614
272500000000.0 -0.015285514992519856 0.001649489532777938 -0.6677512788867556 -0.7066148210242343 -0.6676629766678996 -0.7065682441236014 -0.015245652113439933 0.0016466692368022897
272600000000.0 -0.015263421183985285 0.0016714532925384076 -0.6683573106768849 -0.7060679591142315 -0.6682674945086259 -0.7060237815353337 -0.015223555695370877 0.001667520880140101
272700000000.0 -0.015240883357473464 0.001693457084466015 -0.6689633316677638 -0.705520503502927 -0.6688720659937808 -0.7054787734328181 -0.015201046113430117 0.0016884102289630744
272800000000.0 -0.015217898660113792 0.001715492967498013 -0.6695693399303422 -0.7049724457468666 -0.6694766906994656 -0.7049332096650214 -0.015178120642537003 0.001709330193075959
272900000000.0 -0.015194464388294929 0.0017375529140507852 -0.670175333356379 -0.7044237774376617 -0.6700813679780762 -0.7043870800697113 -0.015154776683528966 0.0017302736010771833
273000000000.0 -0.015170577990126083 0.0017596288129939756 -0.6707813096593431 -0.7038744902059898 -0.670686096957799 -0.7038403744785868 -0.015131011765428089 0.0017512332026973034
273100000000.0 -0.015146237067826866 0.0017817124727199367 -0.6713872663753946 -0.7033245757256398 -0.6712908765422226 -0.7032930827225059 -0.015106823547649605 0.0017722016712207183
273200000000.0 -0.015121439380061028 0.0018037956242300374 -0.6719932008644683 -0.7027740257174871 -0.6718957054100713 -0.7027451946366804 -0.015082209822171752 0.001793171605924074
273300000000.0 -0.015096182844191028 0.0018258699243395638 -0.6725991103114703 -0.702222831953449 -0.6725005820150896 -0.7021967000658891 -0.015057168515648185 0.001814135534621455
273400000000.0 -0.015070465538477887 0.0018479269589147958 -0.6732049917275298 -0.7016709862604328 -0.6731055045860115 -0.7016475888697282 -0.01503169769148032 0.001835085916240107
273500000000.0 -0.015044285704203344 0.0018699582461727366 -0.6738108419513963 -0.7011184805242192 -0.673710471126706 -0.7010978509278336 -0.015005795551830086 0.0018560151434513115
273600000000.0 -0.015017641747727755 0.0018919552400646772 -0.6744166576509051 -0.7005653066933277 -0.6743154794164303 -0.700547476145122 -0.01497946043958935 0.0018769155453831783
273700000000.0 -0.014990532242454719 0.0019139093336905427 -0.6750224353245404 -0.7000114567828389 -0.6749205270102108 -0.6999964544570318 -0.0149526908402729 0.001897779390357522
273800000000.0 -0.014962955930756274 0.0019358118627981638 -0.6756281713030928 -0.6994569228781798 -0.675525611239357 -0.6994447758347561 -0.014925485383891362 0.0019185988887099289
273900000000.0 -0.014934911725780365 0.001957654109308629 -0.6762338617514094 -0.6989016971388557 -0.6761307292121073 -0.6988924302904668 -0.014897842846724869 0.0019393661956333033
274000000000.0 -0.014906398713217122 0.001979427304929841 -0.6768395026702356 -0.6983457718021602 -0.6767358778144011 -0.6983394078825408 -0.014869762153075552 0.001960073414105681
274100000000.0 -0.014877416152947597 0.002001122634799421 -0.6774450898981417 -0.6977891391867937 -0.6773410537107817 -0.6977856987207404 -0.014841242376920782 0.001980712597846131
274200000000.0 -0.014847963480652532 0.00202273124117502 -0.6780506191135568 -0.6972317916964827 -0.6779462533454409 -0.6972312929714163 -0.014812282743545489 0.002001275754317162
274300000000.0 -0.014818040309299658 0.0020442442272026046 -0.678656085836859 -0.6966737218235184 -0.6785514729433648 -0.6966761808626692 -0.014782882631073944 0.00202175484780469
274400000000.0 -0.014787646430575454 0.002065652660687265 -0.679261485432573 -0.696114922152239 -0.6791567085116321 -0.696120352689483 -0.01475304157196328 0.002042141802499126
274500000000.0 -0.014756781816211043 0.0020869475779580864 -0.6798668131116486 -0.6955553853624525 -0.6797619558408325 -0.6955637988188268 -0.014722759254412484 0.0020624285056714754
274600000000.0 -0.014725446619232094 0.0021081199877356553 -0.680472063933826 -0.6949951042328408 -0.6803672105066201 -0.6950065096947678 -0.014692035523713662 0.0020826068108529077
274700000000.0 -0.014693641175122323 0.0021291608750541474 -0.6810772328100644 -0.6944340716442292 -0.6809724678713749 -0.6944484758434776 -0.01466087038353679 0.002102668541070845
274800000000.0 -0.014661366002879834 0.0021500612052456165 -0.6816823145050801 -0.6938722805828691 -0.681577723086022 -0.6938896878782784 -0.014629263997127022 0.0021226054921477193
274900000000.0 -0.014628621806006756 0.0021708119279074097 -0.6822873036399241 -0.6933097241435923 -0.6821829710919307 -0.6933301365045794 -0.014597216688454517 0.002142409435988222
275000000000.0 -0.014595409473391118 0.0021914039809607763 -0.6828921946946747 -0.69274639553294 -0.68278820662299 -0.6927698125248206 -0.014564728943276005 0.0021620721239573692
275100000000.0 -0.014561730080096796 0.0022118282947102513 -0.6834969820111795 -0.6921822880722098 -0.68339342420777 -0.6922087068433489 -0.014531801410124563 0.0021815852902644724
275200000000.0 -0.014527584888064701 0.002232075795929236 -0.684101659795885 -0.6916173952004154 -0.6839986181718283 -0.6916468104712349 -0.014498434901227816 0.002200940655380926
275300000000.0 -0.014492975346714156 0.002252137412003042 -0.6847062221227179 -0.6910517104771982 -0.6846037826401136 -0.6910841145310521 -0.014464630393348544 0.002220129929512999
275400000000.0 -0.014457903093453276 0.0022720040750599654 -0.6853106629360551 -0.6904852275856472 -0.6852089115395152 -0.690520610261593 -0.014430389028551462 0.0022391448160753147
275500000000.0 -0.014422369954081662 0.0022916667261529064 -0.6859149760537562 -0.689917940335046 -0.6858139986015227 -0.6899562890225209 -0.014395712114881857 0.0022579770152166122
275600000000.0 -0.014386377943108953 0.002311116319449879 -0.6865191551702383 -0.6893498426635439 -0.6864190373649803 -0.6893911422989656 -0.014360601126978208 0.0022766182273605625
275700000000.0 -0.014349929263971429 0.0023303438264455434 -0.6871231938596601 -0.6887809286407449 -0.6870240211790075 -0.688825161706048 -0.0143250577066045 0.0022950601567787686
275800000000.0 -0.014313026309133474 0.002349340240187151 -0.6877270855791094 -0.6882111924702062 -0.6876289432059712 -0.68825833899333 -0.014289083663081868 0.0023132945151800393
275900000000.0 -0.014275671660117248 0.0023680965795179806 -0.6883308236719007 -0.6876406284918775 -0.6882337964246287 -0.6876906660492146 -0.014252680973670277 0.0023313130253300733
276000000000.0 -0.014237868087403628 0.002386603893325281 -0.6889344013708928 -0.6870692311844224 -0.68883857363334 -0.6871221349052362 -0.014215851783836908 0.0023491074246819905
276100000000.0 -0.014199618550254796 0.002404853264802826 -0.689537811801872 -0.6864969951674834 -0.6894432674534018 -0.6865527377403036 -0.014178598407467978 0.002366669469030881
276200000000.0 -0.014160926196424206 0.0024228358157164327 -0.6901410479869954 -0.685923915203833 -0.6900478703325013 -0.6859824668848394 -0.014140923326980803 0.0023839909361804503
276300000000.0 -0.014121794361760108 0.0024405427106778707 -0.6907441028482808 -0.6853499862014656 -0.6906523745482667 -0.6854113148248575 -0.014102829193351506 0.0024010636296308992
276400000000.0 -0.01408222656972042 0.0024579651614034994 -0.6913469692111145 -0.684775203215565 -0.6912567722118944 -0.684839274205925 -0.014064318826068149 0.002417879382258199
276500000000.0 -0.01404222653077244 0.0024750944309996437 -0.6919496398078511 -0.6841995614504072 -0.6918610552719251 -0.6842663378370621 -0.014025395212987317 0.0024344300600364186
276600000000.0 -0.014001798141702802 0.002491921838219246 -0.692552107281422 -0.6836230562611657 -0.6924652155180846 -0.6836924986945395 -0.013986061510117503 0.0024507075657367277
276700000000.0 -0.013960945484808966 0.0025084387617176356 -0.6931543641889906 -0.6830456831556015 -0.693069244585228 -0.6831177499255637 -0.013946321041300027 0.002466703842644006
276800000000.0 -0.013919672827006816 0.002524636644311163 -0.6937564030056423 -0.6824674377956941 -0.6936731339573745 -0.6825420848519003 -0.013906177297821846 0.002482410878286504
276900000000.0 -0.01387798461881203 0.0025405069972038877 -0.6943582161281288 -0.6818883159991471 -0.6942768749718558 -0.6819654969733632 -0.013865633937919047 0.0024978207081441934
277000000000.0 -0.01383588549324398 0.002556041404223145 -0.6949597958786129 -0.6813083137408205 -0.694880458823519 -0.6813879799712282 -0.013824694786217069 0.002512925419384746
277100000000.0 -0.013793380264611051 0.0025712315260144566 -0.6955611345084477 -0.6807274271540315 -0.6954838765690259 -0.6808095277115073 -0.013783363833068033 0.002527717154570167
277200000000.0 -0.01375047392719399 0.0025860691042390834 -0.6961622242020208 -0.6801456525318123 -0.6960871191312671 -0.6802301342481683 -0.013741645233799291 0.002542188115378171
277300000000.0 -0.013707171653838703 0.0026005459657295876 -0.6967630570805721 -0.6795629863280093 -0.6966901773038112 -0.6796497938261844 -0.013699543307889202 0.0025563305663040127
277400000000.0 -0.013663478794433002 0.0026146540266322803 -0.6973636252060497 -0.6789794251583294 -0.6972930417554503 -0.6790685008845214 -0.013657062538036665 0.0025701368383549395
277500000000.0 -0.01361940087429357 0.002628385296527228 -0.6979639205850136 -0.6783949658012609 -0.6978957030348442 -0.6784862500589833 -0.01361420756915609 0.0025835993327473473
277600000000.0 -0.01357494359244063 0.002641731882504616 -0.6985639351724989 -0.6778096051989054 -0.6984981515751837 -0.677903036184952 -0.013570983207273834 0.0025967105245707596
277700000000.0 -0.013530112819788163 0.0026546859932129276 -0.6991636608759457 -0.6772233404577106 -0.6991003776989791 -0.6773188543000114 -0.01352739441835048 0.0026094629664415343
277800000000.0 -0.013484914597221662 0.0026672399428828435 -0.6997630895591153 -0.67663616884909 -0.699702371622884 -0.6767336996464391 -0.013483446327006106 0.0026218492921499816
277900000000.0 -0.01343935513357358 0.0026793861552969057 -0.7003622130459993 -0.6760480878099666 -0.700304123462572 -0.6761475676736 -0.01343914421515131 0.002633862220271262
278000000000.0 -0.013393440803520602 0.0026911171677368832 -0.7009610231247795 -0.6754590949431798 -0.7009056232377182 -0.6755604540401833 -0.013394493520552886 0.0026454945577702705
278100000000.0 -0.013347178145362019 0.0027024256348729763 -0.7015595115517228 -0.6748691880178331 -0.7015068608769688 -0.6749723546163523 -0.013349499835291307 0.0026567392035672273
278200000000.0 -0.013300573858712632 0.0027133043326140736 -0.7021576700551575 -0.6742783649695101 -0.7021078262230463 -0.67438326548574 -0.013304168904144108 0.0026675891520830013
278300000000.0 -0.013253634802095557 0.002723746161913916 -0.702755490339378 -0.6736866239004017 -0.7027085090378368 -0.6737931829473303 -0.01325850662287516 0.002678037496757946
278400000000.0 -0.013206367990447465 0.0027337441525228964 -0.7033529640885633 -0.6730939630793399 -0.7033088990075415 -0.6732021035172064 -0.013212519036449183 0.002688077433537693
278500000000.0 -0.013158780592517133 0.002743291466692721 -0.7039500829707139 -0.6725003809417001 -0.703908985747902 -0.6726100239301536 -0.013166212337146444 0.002697702264328358
278600000000.0 -0.01311087992819506 0.00275238140281052 -0.704546838641547 -0.6719058760892614 -0.7045087588094318 -0.672016941141175 -0.0131195928626168 0.0027069054004026623
278700000000.0 -0.013062673465715307 0.0027610073990079974 -0.7051432227483924 -0.6713104472899124 -0.705108207682698 -0.6714228523268214 -0.013072667093814423 0.0027156803658008612
278800000000.0 -0.013014168818811529 0.0027691630366649027 -0.7057392269340471 -0.6707140934772763 -0.705707321803618 -0.6708277548864136 -0.013025441652890367 0.002724020800644534
278900000000.0 -0.012965373743743357 0.0027768420438990483 -0.70633484284067 -0.6701168137502643 -0.7063060905588338 -0.6702316464431453 -0.012977923300968164 0.0027319204644599363
279000000000.0 -0.012916296136265132 0.0027840382989598837 -0.7069300621135756 -0.669518607372468 -0.7069045032910437 -0.669634524844994 -0.012930118935860822 0.0027393732394220935
279100000000.0 -0.012866944028495735 0.0027907458335539644 -0.7075248764050731 -0.6689194737715449 -0.7075025493044196 -0.6690363881655833 -0.012882035589697869 0.002746373133553538
279200000000.0 -0.012817325585707936 0.002796958836144709 -0.7081192773782357 -0.6683194125384168 -0.7081002178700021 -0.6684372347048175 -0.012833680426477072 0.002752914283919841
279300000000.0 -0.01276744910302986 0.0028026716551066556 -0.7087132567106625 -0.6677184234264378 -0.7086974982311343 -0.667837062989444 -0.01278506073952979 0.002758990959695558
279400000000.0 -0.012717323002067937 0.0028078788018856197 -0.7093068060981901 -0.6671165063504391 -0.7092943796088855 -0.667235871773445 -0.012736183948913697 0.0027645975652625184
279500000000.0 -0.01266695582746575 0.0028125749540311522 -0.7098999172585913 -0.6665136613856717 -0.7098908512075093 -0.6666336600382908 -0.012687057598743747 0.0027697286431983582
279600000000.0 -0.012616356243348923 0.0028167549581641417 -0.7104925819352198 -0.6659098887667091 -0.710486902219884 -0.6660304269930968 -0.012637689354409495 0.0027743788772235894
279700000000.0 -0.012565533029741399 0.002820413832881396 -0.7110847919006178 -0.6653051888861742 -0.7110825218329583 -0.6654261720745607 -0.012588086999769443 0.0027785430951063708
279800000000.0 -0.012514495078870156 0.0028235467715561585 -0.7116765389601076 -0.6646995622934637 -0.7116776992332228 -0.6648208949468523 -0.01253825843423189 0.002782216271483224
279900000000.0 -0.01246325139140473 0.0028261491450769865 -0.7122678149552724 -0.6640930096933159 -0.7122724236121019 -0.6642145955012908 -0.012488211669771465 0.0027853935306424056
280000000000.0 -0.012411811072650079 0.002828216504469966 -0.7128586117674872 -0.6634855319443327 -0.7128666841714361 -0.6636072738559273 -0.012437954827900317 0.002788070149210706
280100000000.0 -0.012360183328644555 0.002829744583483062 -0.7134489213213123 -0.6628771300574126 -0.7134604701288627 -0.6629989303549858 -0.012387496136542832 0.002790241558823908
280200000000.0 -0.012308377462206302 0.0028307293010248983 -0.7140387355878911 -0.6622678051940603 -0.7140537707232317 -0.662389565568127 -0.012336843926858384 0.002791903348673769
280300000000.0 -0.012256402868903456 0.002831166763559536 -0.7146280465882604 -0.6616575586646737 -0.7146465752199663 -0.6617791802896348 -0.012286006629982697 0.0027930512680329417
280400000000.0 -0.012204269032983425 0.0028310532673884847 -0.7152168463966415 -0.6610463919266943 -0.7152388729164356 -0.66116777553741 -0.012234992773731293 0.002793681228688138
280500000000.0 -0.012151985523221852 0.002830385300824225 -0.7158051271436349 -0.6604343065827191 -0.7158306531472625 -0.6605553525518697 -0.01218381097921565 0.0027937893072861515
280600000000.0 -0.012099561988721735 0.0028291595463083128 -0.716392881019377 -0.6598213043785153 -0.716421905289614 -0.6599419127946891 -0.01213246995740642 0.0027933717476465248
280700000000.0 -0.012047008154667702 0.002827372882399352 -0.7169801002766478 -0.659207387200947 -0.7170126187684768 -0.6593274579474013 -0.012080978505647896 0.002792424962965382
280800000000.0 -0.011994333818008695 0.002825022385656712 -0.7175667772338736 -0.6585925570758647 -0.7176027830618454 -0.6587119899098941 -0.012029345504097249 0.0027909455379365434
280900000000.0 -0.011941548843106132 0.0028221053324744235 -0.7181529042781024 -0.6579768161658817 -0.718192387705909 -0.6580955107987403 -0.011977579912120543 0.002788930230843262
281000000000.0 -0.011888663157329202 0.002818619200743577 -0.7187384738679041 -0.6573601667681126 -0.718781422300185 -0.6574780229454226 -0.011925690764634199 0.0027863759754988317
281100000000.0 -0.011835686746598573 0.002814561671466701 -0.7193234785361935 -0.6567426113118084 -0.7193698765125912 -0.6568595288943965 -0.01187368716838316 0.002783279883163267
281200000000.0 -0.01178262965089957 0.0028099306302521955 -0.7199079108929682 -0.6561241523559816 -0.7199577400844542 -0.6562400314010818 -0.011821578298187127 0.002779639244356982
281300000000.0 -0.01172950195974606 0.002804724168681735 -0.7204917636280181 -0.6555047925868962 -0.7205450028354999 -0.6556195334296485 -0.011769373393123672 0.0027754515305704907
281400000000.0 -0.011676313807607825 0.0027989405856149465 -0.7210750295135097 -0.6548845348155415 -0.7211316546687406 -0.6549980381507354 -0.011717081752670907 0.0027707143959297986
281500000000.0 -0.011623075369302733 0.0027925783883447383 -0.7216577014065314 -0.6542633819750472 -0.7217176855753287 -0.654375548939031 -0.011664712732804691 0.002765425678734173
281600000000.0 -0.011569796855367768 0.0027856362936742136 -0.7222397722515459 -0.6536413371180099 -0.7223030856393307 -0.6537520693707127 -0.011612275742063992 0.002759583402935907
281700000000.0 -0.011516488507372311 0.0027781132288627183 -0.7228212350827582 -0.6530184034138031 -0.7228878450424258 -0.6531276032207955 -0.011559780237549567 0.002753185779505839
281800000000.0 -0.011463160593238184 0.002770008332478973 -0.7234020830264274 -0.6523945841457929 -0.7234719540685536 -0.6525021544603269 -0.011507235720919294 0.0027462312077282673
281900000000.0 -0.011409823402511798 0.0027613209551348565 -0.7239823093030461 -0.651769882708536 -0.7240554031084371 -0.6518757272534943 -0.01145465173432222 0.002738718276394113
282000000000.0 -0.011356487241614234 0.0027520506601087405 -0.7245619072295203 -0.6511443026049074 -0.7246381826641042 -0.6512483259545973 -0.011402037856303423 0.0027306457649046343
282100000000.0 -0.01130316242909267 0.002742197223857606 -0.7251408702211803 -0.6505178474432066 -0.725220283353247 -0.6506199551049284 -0.011349403697691593 0.0027220126442782924
282200000000.0 -0.011249859290840228 0.0027317606364238383 -0.7257191917937428 -0.6498905209341865 -0.72580169591353 -0.6499906194295166 -0.011296758897447584 0.002712818078074146
282300000000.0 -0.011196588155289388 0.0027207411017006345 -0.7262968655652047 -0.649262326888068 -0.7263824112068251 -0.6493603238337824 -0.011244113118471486 0.0027030614231913557
282400000000.0 -0.01114335934862523 0.002709139037637514 -0.7268738852576265 -0.6486332692115043 -0.7269624202233335 -0.648729073400079 -0.01119147604341579 0.002692742230623957
282500000000.0 -0.011090183189972281 0.0026969550762644882 -0.7274502446988211 -0.6480033519045038 -0.7275417140856046 -0.6480968733841234 -0.011138857370455515 0.002681860246053921
282600000000.0 -0.011037069986570473 0.002684190063659713 -0.7280259378239649 -0.6473725790573466 -0.728120284052477 -0.6474637292113562 -0.011086266809040929 0.002670415410403151
282700000000.0 -0.010984030028963877 0.0026708450597728466 -0.7286009586771481 -0.6467409548474262 -0.728698121522934 -0.6468296464731585 -0.011033714075634396 0.002658407860257492
282800000000.0 -0.010931073586175469 0.0026569213381388624 -0.7291753014127652 -0.646108483536098 -0.7292752180397991 -0.646194630923005 -0.01098120888943327 0.0026458379281987334
282900000000.0 -0.010878210900906233 0.002642420385478127 -0.7297489602968829 -0.6454751694654862 -0.7298515652933936 -0.6455586884725184 -0.010928760968087042 0.002632706143036329
283000000000.0 -0.010825452184707214 0.002627343901188488 -0.7303219297084907 -0.6448410170552682 -0.7304271551250506 -0.6449218251874211 -0.010876380023380683 0.0026190132299478194
283100000000.0 -0.010772807613194942 0.0026116937967055006 -0.7308942041406224 -0.6442060307994544 -0.7310019795304992 -0.6442840472834312 -0.010824075756940443 0.0026047601105013756
283200000000.0 -0.010720287321263566 0.0025954721947689064 -0.7314657782014767 -0.6435702152631082 -0.731576030663208 -0.6436453611220189 -0.010771857855917416 0.002589947902598717
283300000000.0 -0.010667901398290212 0.002578681428559928 -0.7320366466153361 -0.6429335750790992 -0.7321493008375229 -0.6430057732061433 -0.010719735988651861 0.0025745779203040493
283400000000.0 -0.010615659883408004 0.002561324040734715 -0.732606804223478 -0.6422961149448194 -0.7327217825317642 -0.642365290175876 -0.010667719800382152 0.0025586516735802457
283500000000.0 -0.010563572760750586 0.002543402782331172 -0.7331762459849571 -0.6416578396188808 -0.7332934683911669 -0.6417239188039506 -0.010615818908908083 0.00254217086791404
283600000000.0 -0.010511649954749964 0.0025249206115691486 -0.7337449669772773 -0.6410187539178304 -0.7338643512306939 -0.6410816659912614 -0.010564042900291478 0.0025251374038434866
283700000000.0 -0.010459901325435885 0.002505880692554272 -0.734312962397026 -0.6403788627128275 -0.7344344240377682 -0.6404385387622619 -0.010512401324534031 0.00250755337640435
283800000000.0 -0.010408336663792523 0.0024862863938295817 -0.7348802275603386 -0.6397381709263534 -0.7350036799748183 -0.6397945442603328 -0.010460903691297633 0.0024894210744349538
283900000000.0 -0.01035696568712283 0.002466141286863443 -0.7354467579033488 -0.6390966835288894 -0.7355721123817643 -0.6391496897430577 -0.010409559465610863 0.0024707429798253937
284000000000.0 -0.010305798034460282 0.0024454491443828704 -0.7360125489824867 -0.6384544055356324 -0.7361397147783258 -0.6385039825774773 -0.010358378063601115 0.0024515217666266757
284100000000.0 -0.010254843262006643 0.0024242139386292053 -0.7365775964747265 -0.6378113420031729 -0.7367064808662371 -0.6378574302352418 -0.010307368848235438 0.0024317603000882987
284200000000.0 -0.010204110838618368 0.0024024398394889837 -0.737141896177698 -0.6371674980262185 -0.7372724045312891 -0.6372100402877493 -0.010256541125086074 0.0024114616355841167
284300000000.0 -0.010153610141345755 0.0023801312125142464 -0.7377054440097461 -0.6365228787343075 -0.7378374798452826 -0.6365618204012227 -0.010205904138130696 0.002390629017431415
284400000000.0 -0.010103350450977487 0.0023572926168428073 -0.7382682360098834 -0.635877489288542 -0.7384017010678288 -0.6359127783317443 -0.010155467065534473 0.0023692658776250618
284500000000.0 -0.010053340947684399 0.0023339288030165134 -0.7388302683376504 -0.6352313348783496 -0.7389650626480136 -0.6352629219202596 -0.010105239015512631 0.0023473758344698327
284600000000.0 -0.010003590706681982 0.002310044710668247 -0.7393915372728849 -0.6345844207182242 -0.7395275592259279 -0.6346122590875116 -0.01005522902218541 0.002324962691093742
284700000000.0 -0.009954108693940169 0.002285645466151617 -0.7399520392154102 -0.6339367520445361 -0.7400891856340704 -0.6339607978289891 -0.010005446041464687 0.002302030433908571
284800000000.0 -0.009904903761984229 0.002260736380005022 -0.7405117706846231 -0.6332883341123334 -0.7406499368985986 -0.6333085462098087 -0.009955898947003567 0.0022785832309107656
284900000000.0 -0.009855984645715644 0.00223532294438025 -0.741070728319011 -0.6326391721921778 -0.741209808240461 -0.6326555123595868 -0.009906596526148387 0.002254625429953324
285000000000.0 -0.009807359958310459 0.002209410830316854 -0.7416289088755518 -0.6319892715670202 -0.7417687950763607 -0.6320017044672958 -0.009857547475942596 0.0022301615568672546
285100000000.0 -0.009759038187186231 0.0021830058849544257 -0.742186309229087 -0.6313386375290714 -0.7423268930196356 -0.6313471307760712 -0.009808760399178782 0.0022051963135245036
285200000000.0 -0.00971102769002752 0.002156114128627496 -0.7427429263715275 -0.6306872753767621 -0.7428840978809224 -0.6306917995780561 -0.009760243800485792 0.0021797345757894227
285300000000.0 -0.009663336690872297 0.00212874175186212 -0.7432987574110342 -0.630035190411687 -0.743440405668733 -0.6300357192091882 -0.009712006082451714 0.002153781391372316
285400000000.0 -0.00961597327628896 0.0021008951123048466 -0.7438537995711282 -0.6293823879356115 -0.7439958125899089 -0.6293788980440013 -0.009664055541819871 0.0021273419776199976
285500000000.0 -0.009568945391603197 0.002072580731514106 -0.7444080501896552 -0.6287288732475059 -0.7445503150498647 -0.6287213444904147 -0.0096164003657063 0.0021004217191691924
285600000000.0 -0.009522260837218592 0.0020438052917216734 -0.7449615067177332 -0.6280746516406401 -0.7451039096527587 -0.6280630669845396 -0.00956904862789099 0.0020730261655721176
285700000000.0 -0.009475927265007872 0.002014575632438046 -0.7455141667185955 -0.627419728399708 -0.7456565932014985 -0.6274040739854769 -0.00952200828515407 0.002045161028764909
285800000000.0 -0.009429952174775855 0.001984898747024321 -0.7460660278663405 -0.6267641087980003 -0.7462083626975847 -0.6267443739701222 -0.00947528717366461 0.00201683218050639
285900000000.0 -0.009384342910821282 0.001954781779152844 -0.7466170879446425 -0.6261077980946312 -0.7467592153408588 -0.6260839754279945 -0.009428893005440064 0.0019880456496999452
286000000000.0 -0.009339106658563846 0.0019242320191861799 -0.7471673448453747 -0.6254508015318077 -0.7473091485290905 -0.6254228868560664 -0.009382833364852369 0.001958807619636874
286100000000.0 -0.00929425044127373 0.0018932569004776003 -0.7477167965671407 -0.6247931243321516 -0.7478581598574161 -0.6247611167536183 -0.009337115705209344 0.0019291244251569528
286200000000.0 -0.009249781116886393 0.0018618639956118207 -0.7482654412137515 -0.6241347716961054 -0.7484062471176455 -0.6240986736171419 -0.009291747345399634 0.0018990025497480074
286300000000.0 -0.00920570537488866 0.0018300610125214706 -0.7488132769926377 -0.6234757487993321 -0.7489534082974444 -0.6234355659352133 -0.00924673546658904 0.0018684486225176312
286400000000.0 -0.009162029733324587 0.001797855790578142 -0.7493603022132007 -0.6228160607902506 -0.7494996415793802 -0.6227718021834704 -0.009202087109007332 0.0018374694151367288
286500000000.0 -0.009118760535879976 0.0017652562965942693 -0.7499065152850747 -0.6221557127875674 -0.750044945339813 -0.6221073908195608 -0.009157809168793248 0.0018060718386885338
286600000000.0 -0.009075903949061916 0.0017322706207248525 -0.7504519147163388 -0.6214947098778959 -0.7505893181476593 -0.6214423402781558 -0.009113908394916466 0.0017742629404132097
286700000000.0 -0.009033465959487482 0.0016989069723586964 -0.7509964991116652 -0.6208330571134661 -0.7511327587630297 -0.6207766589660333 -0.009070391386176069 0.0017420499004369861
286800000000.0 -0.008991452371249325 0.001665173675898374 -0.7515402671704265 -0.6201707595098367 -0.7516752661357411 -0.62011035525714 -0.009027264588262167 0.0017094400283835208
286900000000.0 -0.008949868803411152 0.001631079166481628 -0.7520832176847204 -0.6195078220437239 -0.752216839403685 -0.6194434374877584 -0.008984534290919402 0.0016764407599196439
287000000000.0 -0.008908720687581497 0.0015966319856700545 -0.7526253495373367 -0.6188442496509171 -0.7527574778910519 -0.6187759139517378 -0.008942206625166519 0.0016430596532627576
287100000000.0 -0.00886801326560955 0.001561840777056856 -0.7531666616997128 -0.6181800472241723 -0.7532971811064818 -0.6181077928956976 -0.008900287560620092 0.0016093043855975105
287200000000.0 -0.008827751587376882 0.001526714281808146 -0.753707153229777 -0.6175152196112988 -0.7538359487410179 -0.6174390825144023 -0.00885878290288429 0.0015751827494193352
287300000000.0 -0.008787940508685229 0.0014912613341949634 -0.7542468232697891 -0.6168497716132086 -0.7543737806659834 -0.6167697909460995 -0.008817698291024 0.0015407026488585764
287400000000.0 -0.008748584689283636 0.0014554908570121765 -0.7547856710441307 -0.6161837079821179 -0.754910676930739 -0.6160999262679988 -0.008777039195145895 0.0015058720958817996
287500000000.0 -0.008709688590974493 0.0014194118570053948 -0.7553236958570231 -0.6155170334197945 -0.7554466377602819 -0.6154294964917869 -0.008736810914043058 0.0014706992064930768
287600000000.0 -0.008671256475850986 0.001383033420231138 -0.7558608970902299 -0.6148497525758618 -0.7559816635527586 -0.6147585095592019 -0.008697018572948075 0.0014351921968550074
287700000000.0 -0.008633292404637883 0.0013463647073656822 -0.7563972742007158 -0.6141818700462316 -0.7565157548768575 -0.6140869733377368 -0.008657667121366916 0.0013993593793491478
287800000000.0 -0.008595800235136924 0.0013094149489850165 -0.7569328267182451 -0.6135133903715451 -0.757048912469056 -0.6134148956163423 -0.00861876133099862 0.0013632091585937193
287900000000.0 -0.008558783620804235 0.0012721934408051526 -0.757467554242995 -0.6128443180357708 -0.7575811372308179 -0.6127422841013035 -0.00858030579376348 0.0013267500274119369
288000000000.0 -0.008522246009442059 0.0012347095388896506 -0.7580014564430654 -0.6121746574648271 -0.7581124302255972 -0.6120691464121332 -0.008542304919928783 0.0012899905627531494
288100000000.0 -0.0084861906419842 0.001196972654824989 -0.7585345330520474 -0.6115044130253003 -0.7586427926758326 -0.6113954900775793 -0.008504762936303452 0.0012529394215667251
288200000000.0 -0.008450620551414018 0.0011589922508680997 -0.7590667838664639 -0.610833589023263 -0.75917222595973 -0.6107213225317365 -0.008467683884551267 0.0012156053366371767
288300000000.0 -0.008415538561823106 0.0011207778350617234 -0.7595982087432774 -0.6101621897031337 -0.7597007316080382 -0.6100466511102097 -0.008431071619619094 0.0011779971123702792
288400000000.0 -0.008380947287529441 0.00108233895633573 -0.7601288075973255 -0.6094902192466843 -0.7602283113006756 -0.6093714830464462 -0.008394929808210466 0.0011401236205509843
288500000000.0 -0.008346849132383436 0.001043685199589547 -0.7606585803987211 -0.608817681772062 -0.760754966863244 -0.6086958254680909 -0.008359261927424678 0.0011019937960657512
288600000000.0 -0.008313246289136222 0.0010048261807529782 -0.7611875271702998 -0.6081445813329377 -0.7612807002635092 -0.6080196853934929 -0.00832407126344152 0.0010636166325892872
288700000000.0 -0.008280140738969549 0.0009657715418196016 -0.761715647984971 -0.6074709219177225 -0.7618055136077165 -0.6073430697282945 -0.00828936091035046 0.0010250011782236698
288800000000.0 -0.008247534251109263 0.0009265309459051692 -0.762242942963144 -0.6067967074488859 -0.7623294091368981 -0.6066659852621529 -0.0082551337690415 0.0009861565311501353
288900000000.0 -0.008215428382600014 0.0008871140722595961 -0.7627694122700555 -0.6061219417823445 -0.7628523892230099 -0.6059884386655472 -0.008221392546245706 0.0009470918352106057
289000000000.0 -0.00818382447817122 0.0008475306113021048 -0.7632950561131477 -0.605446628706915 -0.7633744563650443 -0.6053104364866868 -0.008188139753644819 0.0009078162754999107
289100000000.0 -0.0081527236702221 0.0008077902596298032 -0.7638198747394486 -0.6047707719439199 -0.7638956131850697 -0.6046319851485942 -0.008155377707086972 0.0008683390739106043
289200000000.0 -0.008122126878960701 0.0007679027150495559 -0.7643438684328984 -0.6040943751467941 -0.7644158624241404 -0.6039530909462252 -0.00812310852593983 0.0008286694846798163
289300000000.0 -0.008092034812620143 0.0007278776716050265 -0.7648670375117081 -0.6034174419008393 -0.7649352069381735 -0.6032737600437684 -0.008091334132502652 0.0007888167899159242
289400000000.0 -0.008062447967842903 0.0006877248145999833 -0.7653893823257436 -0.6027399757230382 -0.7654536496937656 -0.602593998472037 -0.008060056251574821 0.0007487902950971447
289500000000.0 -0.008033366630136476 0.0006474538156599935 -0.7659109032538641 -0.6020619800619543 -0.7659711937639065 -0.6019138121259915 -0.008029276410079337 0.0007085993245921526
289600000000.0 -0.008004790874501757 0.0006070743277672543 -0.7664316007013154 -0.6013834582977197 -0.7664878423236682 -0.6012332067623825 -0.007998995936844416 0.0006682532171297024
289700000000.0 -0.007976720566131405 0.0005665959803485715 -0.7669514750971013 -0.600704413742105 -0.7670035986458053 -0.6005521879975227 -0.007969215962443042 0.0006277613213005722
289800000000.0 -0.007949155361274239 0.0005260283743575734 -0.7674705268913709 -0.6000248496386843 -0.7675184660963038 -0.5998707613051938 -0.007939937419183413 0.0005871329910351818
289900000000.0 -0.007922094708186405 0.0004853810773989742 -0.7679887565528701 -0.5993447691630557 -0.7680324481299227 -0.5991889320146597 -0.007911161041174515 0.0005463775810956294
290000000000.0 -0.007895537848218628 0.00044466361886027757 -0.7685061645663204 -0.598664175423171 -0.768545548285601 -0.5985067053088299 -0.007882887364517298 0.0005055044425583388
290100000000.0 -0.007869483817026547 0.0004038854850673566 -0.7690227514299169 -0.5979830714597462 -0.7690577701819152 -0.5978240862225616 -0.007855116727603481 0.00046452291829296856
290200000000.0 -0.007843931445872369 0.0003630561145081244 -0.769538517652775 -0.5973014602467369 -0.7695691175124258 -0.5971410796410715 -0.007827849271497307 0.0004234423384893008
290300000000.0 -0.007818879363087691 0.0003221848930419516 -0.7700534637524278 -0.5966193446919092 -0.7700795940410045 -0.5964576902985014 -0.007801084940468458 0.000382272016145331
290400000000.0 -0.007794325995612841 0.0002812811491744665 -0.7705675902523728 -0.5959367276374603 -0.7705892035971529 -0.5957739227765846 -0.00777482348259018 0.00034102124259536095
290500000000.0 -0.007770269570668802 0.0002403541493787057 -0.771080897679626 -0.5952536118607857 -0.771097950071276 -0.5950897815035238 -0.007749064450462873 0.0002996992830634223
290600000000.0 -0.007746708117555391 0.00019941309341992567 -0.771593386562293 -0.5945700000752375 -0.7716058374098997 -0.5944052707529078 -0.007723807202049692 0.0002583153721918114
290700000000.0 -0.007723639469542265 0.00015846710977488666 -0.7721050574272282 -0.5938858949310197 -0.7721128696109288 -0.593720394642837 -0.007699050901605217 0.0002168787096421652
290800000000.0 -0.007701061265881499 0.00011752525107723307 -0.7726159107976592 -0.5932012990161547 -0.7726190507188152 -0.5930351571351788 -0.0076747945207097795 0.0001753984556961711
290900000000.0 -0.007678970953941044 7.659648959295023e-05 -0.7731259471909224 -0.5925162148574689 -0.7731243848197769 -0.592349562034903 -0.0076510368394274424 0.00013388372686121976
291000000000.0 -0.007657365791438773 3.568971280054598e-05 -0.7736351671161851 -0.5918306449217392 -0.773628876036956 -0.5916636129896482 -0.007627776447545373 9.234359155477921e-05
291100000000.0 -0.00763624284878772 -5.1862810263307064e-06 -0.7741435710722573 -0.5911445916168353 -0.7741325285256154 -0.590977313489353 -0.007605011745933949 5.078706576615212e-05
291200000000.0 -0.007615599011548188 -4.60227871359075e-05 -0.774651159545399 -0.5904580572929607 -0.774635346468281 -0.5902906668660484 -0.007582740947994489 9.223108790994559e-06
291300000000.0 -0.007595430982990321 -8.681119856246062e-05 -0.7751579330072175 -0.5897710442439846 -0.775137334069925 -0.5896036762938198 -0.007560962081226093 -3.2339381007350944e-05
291400000000.0 -0.007575735286761765 -0.00012754301035523824 -0.7756638919126027 -0.5890835547087827 -0.7756384955531468 -0.5889163447888448 -0.007539672988882844 -7.389157042610101e-05
291500000000.0 -0.007556508269650547 -0.00016820982368564687 -0.7761690366977071 -0.5883955908727281 -0.7761388351533516 -0.5882286752096562 -0.007518871331729142 -0.00011542469555934921
291600000000.0 -0.007537746104468057 -0.00020880334993671375 -0.7766733677779993 -0.587707154869146 -0.7766383571139585 -0.5875406702574429 -0.007498554589916849 -0.0001569300659412122
291700000000.0 -0.0075194447930029525 -0.0002493154146633207 -0.7771768855463086 -0.5870182487809185 -0.7771370656815677 -0.5868523324765818 -0.0074787200649202605 -0.00019839906858787568
291800000000.0 -0.007501600169106543 -0.0002897379615555584 -0.777679590371061 -0.5863288746421046 -0.7776349651012753 -0.5861636642552563 -0.007459364881613861 -0.00023982317206931722
291900000000.0 -0.0074842079018525905 -0.00033006305623131004 -0.7781814825944399 -0.585639034439608 -0.7781320596118795 -0.5854746678262043 -0.0074404859904156845 -0.000281193930439696
292000000000.0 -0.007467263498795405 -0.0003702828900202168 -0.7786825625306525 -0.5849487301149661 -0.7786283534411578 -0.5847853452676685 -0.007422080169536799 -0.0003225029871834845
292100000000.0 -0.007450762309330787 -0.0004103897836354527 -0.7791828304643093 -0.5842579635660918 -0.7791238508012305 -0.5840956985043801 -0.00740414402732695 -0.0003637420790779237
292200000000.0 -0.007434699528131571 -0.00045037619073837507 -0.7796822866487888 -0.5835667366491761 -0.7796185558838727 -0.5834057293087846 -0.007386674004704581 -0.00040490303997907297
292300000000.0 -0.007419070198676878 -0.0004902347014745587 -0.7801809313047372 -0.5828750511805599 -0.7801124728559413 -0.5827154393023194 -0.007369666377678713 -0.00044597780460149927
292400000000.0 -0.007403869216898642 -0.0005299580458642442 -0.7806787646185928 -0.5821829089386812 -0.7806056058547999 -0.5820248299568572 -0.00735311725999308 -0.0004869584121860258
292500000000.0 -0.007389091334837284 -0.000569539097115156 -0.7811757867412031 -0.5814903116661153 -0.7810979589838125 -0.5813339025963176 -0.007337022605782865 -0.0005278370101103702
292600000000.0 -0.007374731164468987 -0.0006089708748585746 -0.7816719977864905 -0.5807972610715528 -0.7815895363078665 -0.5806426583983103 -0.007321378212410314 -0.0005686058574582637
292700000000.0 -0.007360783181553482 -0.0006482465482641077 -0.7821673978302089 -0.580103758831939 -0.7820803418489711 -0.579951098396025 -0.007306179723323535 -0.0006092573284901951
292800000000.0 -0.00734724172956646 -0.0006873594390730979 -0.7826619869087824 -0.5794098065945704 -0.7825703795819181 -0.5792592234801649 -0.0072914226310084275 -0.0006497839160619436
292900000000.0 -0.007334101023721417 -0.0007263030245310293 -0.7831557650181994 -0.5787154059792604 -0.7830596534299895 -0.5785670344010376 -0.007277102280037543 -0.0006901782349678967
293000000000.0 -0.007321355155075592 -0.000765070940190296 -0.7836487321129817 -0.5780205585805376 -0.7835481672607276 -0.577874531770766 -0.0072632138702093405 -0.0007304330251858506
293100000000.0 -0.0073089980946515745 -0.0008036569826507203 -0.784140888105234 -0.5773252659698764 -0.7840359248817743 -0.5771817160656274 -0.007249752459713474 -0.000770541155082617
293200000000.0 -0.007297023697690988 -0.0008420551121548237 -0.7846322328638039 -0.5766295296979564 -0.7845229300368225 -0.5764885876285012 -0.0072367129684382135 -0.0008104956245054952
293300000000.0 -0.007285425707934156 -0.0008802594551023967 -0.7851227662134603 -0.5759333512969429 -0.785009186401576 -0.575795146671438 -0.007224090181310509 -0.0008502895678166596
293400000000.0 -0.007274197761956922 -0.0009182643064393147 -0.7856124879342125 -0.5752367322828227 -0.7854946975798501 -0.5751013932783672 -0.0072118787517106596 -0.0008899162568306145
293500000000.0 -0.007263333393601923 -0.0009560641319330671 -0.786101397760666 -0.5745396741577095 -0.7859794670997153 -0.5744073274078693 -0.007200073204986543 -0.0009293691036662919
293600000000.0 -0.007252826038422011 -0.0009936535703483993 -0.7865894953814658 -0.5738421784122265 -0.7864634984097292 -0.5737129488961163 -0.007188667941995678 -0.0009686416635216886
293700000000.0 -0.007242669038205306 -0.0010310274354970023 -0.7870767804388701 -0.5731442465278721 -0.7869467948753032 -0.5730182574598822 -0.0071776572427453104 -0.0010077276373522685
293800000000.0 -0.00723285564554371 -0.0010681807181740445 -0.7875632525283254 -0.5724458799794074 -0.7874293597750872 -0.5723232526996718 -0.007167035270084416 -0.0010466208744631202
293900000000.0 -0.0072233790284546035 -0.001105108587981476 -0.7880489111982157 -0.5717470802372637 -0.787911196297534 -0.5716279341029601 -0.0071567960734648 -0.0010853153750080833
294000000000.0 -0.00721423227501339 -0.001141806395011126 -0.7885337559495981 -0.5710478487699653 -0.7883923075374653 -0.5709323010475349 -0.007146933592734569 -0.0011238052923806497
294100000000.0 -0.007205408398086143 -0.001178269671447002 -0.7890177862360996 -0.5703481870465327 -0.7888726964928212 -0.5702363528049144 -0.0071374416620398114 -0.0011620849355450066
294200000000.0 -0.0071969003400399675 -0.0012144941330088693 -0.7895010014638868 -0.569648096538922 -0.789352366061496 -0.5695400885438892 -0.007128314013726879 -0.001200148771234766
294300000000.0 -0.0071887009775340165 -0.0012504756802958746 -0.7899834009916671 -0.5689475787244528 -0.7898313190382296 -0.5688435073341472 -0.007119544282341456 -0.0012379914260756538
294400000000.0 -0.00718080312630474 -0.0012862103999849415 -0.7904649841308498 -0.5682466350882363 -0.7903095581116859 -0.5681466081499834 -0.00711112600863734 -0.0012756076885864789
294500000000.0 -0.0071731995460274835 -0.0013216945659347602 -0.7909457501457207 -0.5675452671255904 -0.7907870858615711 -0.5674493898740943 -0.007103052643687455 -0.0013129925111103437
294600000000.0 -0.007165882945139398 -0.0013569246401458396 -0.7914256982537701 -0.5668434763444931 -0.7912639047559327 -0.5667518513014896 -0.007095317552970546 -0.0013501410116256698
294700000000.0 -0.007158845985746088 -0.001391897273580372 -0.7919048276260381 -0.5661412642679504 -0.7917400171485134 -0.5660539911434184 -0.0070879140205645395 -0.001387048475436332
294800000000.0 -0.0071520812885109055 -0.001426609306900588 -0.7923831373875942 -0.5654386324364256 -0.7922154252762686 -0.5653558080314379 -0.0070808352533424995 -0.0014237103568078661
294900000000.0 -0.007145581437567874 -0.001461057771022394 -0.7928606266180933 -0.5647355824102239 -0.7926901312570023 -0.564657300521523 -0.0070740743852171625 -0.0014601222804354246
295000000000.0 -0.007139338985462731 -0.0014952398875927313 -0.7933372943523711 -0.5640321157718647 -0.7931641370870838 -0.5639584670982603 -0.007067624481434124 -0.0014962800428596293
295100000000.0 -0.007133346458064308 -0.0015291530693094578 -0.7938131395811964 -0.5633282341284334 -0.7936374446393578 -0.563259306179095 -0.0070614785428591 -0.0015321796137462353
295200000000.0 -0.007127596359532689 -0.0015627949201129053 -0.7942881612520343 -0.5626239391138939 -0.7941100556611176 -0.562559816118632 -0.0070556295103452625 -0.0015678171370552916
295300000000.0 -0.007122081177245957 -0.0015961632352673063 -0.7947623582699523 -0.5619192323914441 -0.7945819717722633 -0.5618599952130624 -0.007050070269087177 -0.0016031889321215529
295400000000.0 -0.007116793386759341 -0.0016292560012909603 -0.7952357294985656 -0.561214115655743 -0.7950531944635555 -0.5611598417045377 -0.0070447936530286 -0.00163829149460254
295500000000.0 -0.007111725456727426 -0.0016620713957849601 -0.7957082737610589 -0.560508590635207 -0.7955237250949925 -0.5604593537857063 -0.007039792449261703 -0.0016731214973412548
295600000000.0 -0.007106869853849402 -0.0016946077870911474 -0.7961799898413583 -0.5598026590941876 -0.7959935648943981 -0.5597585296042016 -0.007035059402474596 -0.0017076757910785664
295700000000.0 -0.00710221904777848 -0.0017268637338779427 -0.7966508764852754 -0.5590963228352035 -0.7964627149560303 -0.5590573672672685 -0.007030587219392265 -0.0017419514051111769
295800000000.0 -0.007097765516043592 -0.001758837984541077 -0.7971209324018078 -0.5583895837010675 -0.7969311762394221 -0.5583558648463618 -0.007026368573255099 -0.0017759455477759421
295900000000.0 -0.007093501748928352 -0.0017905294765095943 -0.7975901562645064 -0.5576824435769755 -0.797398949568333 -0.5576540203817816 -0.007022396108284377 -0.0018096556068616073
296000000000.0 -0.007089420254321544 -0.0018219373354185155 -0.7980585467128762 -0.5569749043926249 -0.7978660356298136 -0.5569518318874146 -0.007018662444148479 -0.0018430791498967906
296100000000.0 -0.007085513562603856 -0.0018530608741482695 -0.7985261023539105 -0.556266968124188 -0.7983324349734593 -0.5562492973554032 -0.007015160180493271 -0.0018762139243215022
296200000000.0 -0.007081774231412549 -0.0018838995917494343 -0.7989928217636407 -0.5555586367963166 -0.7987981480107598 -0.5555464147609146 -0.007011881901383146 -0.0019090578575583768
296300000000.0 -0.007078194850461973 -0.0019144531722057043 -0.7994587034888052 -0.5548499124840884 -0.7992631750146284 -0.5548431820669284 -0.007008820179822873 -0.0019416090569323024
296400000000.0 -0.00707476804627035 -0.0019447214831371292 -0.7999237460485729 -0.5541407973148484 -0.7997275161190679 -0.5541395972289738 -0.007005967582224224 -0.0019738658095428225
296500000000.0 -0.007071486486888145 -0.0019747045743031487 -0.800387947936303 -0.5534312934700376 -0.8001911713189439 -0.5534356581999418 -0.007003316672900039 -0.0020058265819493265
296600000000.0 -0.007068342886542795 -0.0020044026760253444 -0.800851307621448 -0.5527214031869936 -0.8006541404699801 -0.5527313629349087 -0.007000860018505942 -0.00203749001978415
296700000000.0 -0.007065330010289587 -0.002033816197508676 -0.8013138235514334 -0.5520111287606299 -0.8011164232888088 -0.552026709395918 -0.006998590192524237 -0.0020688549472751123
296800000000.0 -0.007062440678578481 -0.002062945724965924 -0.801775494153649 -0.5513004725451124 -0.8015780193532213 -0.5513216955568156 -0.006996499779696108 -0.002099920366577142
296900000000.0 -0.00705966777177619 -0.002091792019702667 -0.802236317837537 -0.5505894369554223 -0.8020389281025888 -0.5506163194080241 -0.006994581380434619 -0.0021306854570754433
297000000000.0 -0.007057004234641884 -0.0021203560160390207 -0.802696292996662 -0.5498780244688917 -0.8024991488383602 -0.5499105789613538 -0.006992827615235729 -0.002161149574529679
297100000000.0 -0.007054443080730763 -0.0021486388191126614 -0.8031554180108798 -0.5491662376266762 -0.8029586807247385 -0.5492044722547965 -0.0069912311290425315 -0.002191312250108916
297200000000.0 -0.0070519773967741735 -0.0021766417025786064 -0.803613691248576 -0.5484540790351158 -0.8034175227895233 -0.5484979973572655 -0.006989784595622624 -0.0022211731893210396
297300000000.0 -0.007049600346931396 -0.0022043661062109386 -0.804071111068956 -0.5477415513670998 -0.8038756739250913 -0.5477911523733846 -0.006988480721851565 -0.002250732270856777
297400000000.0 -0.007047305177044548 -0.002231813633331359 -0.8045276758243377 -0.5470286573632634 -0.804333132889472 -0.5470839354481571 -0.006987312252033396 -0.0022799895452575605
297500000000.0 -0.007045085218772225 -0.002258986048196408 -0.8049833838625667 -0.5463153998332037 -0.804789898307642 -0.5463763447716972 -0.006986271972133686 -0.002308945233548229
297600000000.0 -0.007042933893670283 -0.00228588527324793 -0.8054382335294311 -0.5456017816565564 -0.8052459686729175 -0.5456683785838659 -0.006985352713996934 -0.002337599725729655
297700000000.0 -0.007040844717202209 -0.002312513386220728 -0.8058922231711454 -0.5448878057840397 -0.8057013423485031 -0.5449600351789092 -0.0069845473595247926 -0.0023659535791338685
297800000000.0 -0.007038811302660711 -0.002338872617198574 -0.8063453511368531 -0.5441734752383983 -0.8061560175691719 -0.5442513129100374 -0.006983848844803354 -0.002394007516722037
297900000000.0 -0.00703682736500009 -0.0023649653455381325 -0.8067976157811959 -0.5434587931152183 -0.8066099924430986 -0.5435422101939054 -0.006983250164175764 -0.002421762425251948
298000000000.0 -0.007034886724599221 -0.0023907940966940698 -0.8072490154669268 -0.5427437625838052 -0.8070632649538511 -0.542832725515191 -0.006982744374280757 -0.0024492193533433943
298100000000.0 -0.007032983310943467 -0.0024163615389391356 -0.8076995485675195 -0.5420283868877976 -0.8075158329624667 -0.5421228574309306 -0.0069823245980441045 -0.0024763795094328816
298200000000.0 -0.007031111166185941 -0.0024416704800158968 -0.8081492134698419 -0.5413126693458348 -0.8079676942097075 -0.541412604574942 -0.006981984028586027 -0.00250324425965577
298300000000.0 -0.007029264448633993 -0.00246672386363339 -0.8085980085768754 -0.5405966133520732 -0.8084188463184623 -0.540701965662113 -0.006981715933088101 -0.0025298151255726173
298400000000.0 -0.007027437436158747 -0.0024915247659440896 -0.8090459323104268 -0.53988022237663 -0.8088692867962438 -0.5399909394926418 -0.006981513656620973 -0.002556093781857899
298500000000.0 -0.007025624529464085 -0.0025160763918865743 -0.8094929831138651 -0.5391634999659574 -0.8093190130378201 -0.539279524956217 -0.0069813706258634554 -0.0025820820538589666
298600000000.0 -0.0070238202552966415 -0.0025403820714241486 -0.8099391594549442 -0.53844644974309 -0.80976802232804 -0.5385677210360936 -0.006981280352798368 -0.0026077819150341023
298700000000.0 -0.007022019269525514 -0.0025644452557648965 -0.8103844598285624 -0.5377290754078587 -0.8102163118447004 -0.5378555268131411 -0.0069812364383156494 -0.0026331954843657546
298800000000.0 -0.007020216360123617 -0.0025882695134259413 -0.8108288827595881 -0.5370113807369374 -0.8106638786615917 -0.5371429414697326 -0.0069812325757475655 -0.0026583250236043047
298900000000.0 -0.007018406450053449 -0.0026118585262623613 -0.8112724268057097 -0.5362933695838941 -0.8111107197516714 -0.5364299642936456 -0.006981262554347695 -0.0026831729344678275
299000000000.0 -0.007016584600014145 -0.0026352160854155805 -0.811715090560248 -0.5355750458790698 -0.8115568319903178 -0.5357165946817876 -0.006981320262662104 -0.0027077417557469195
299100000000.0 -0.0070147460111252575 -0.0026583460871603837 -0.81215687265503 -0.5348564136294024 -0.8120022121587459 -0.5350028321438711 -0.0069813996918703216 -0.002732034160292213
299200000000.0 -0.007012886027424934 -0.0026812525287213916 -0.8125977717632372 -0.5341374769181492 -0.8124468569475153 -0.5342886763059785 -0.006981494938980446 -0.0027560529519589836
299300000000.0 -0.007011000138334299 -0.0027039395039944267 -0.8130377866023006 -0.5334182399045249 -0.8128907629601896 -0.5335741269140336 -0.0069816002100177126 -0.0027798010624434134
299400000000.0 -0.007009083980931773 -0.0027264111992036932 -0.8134769159367135 -0.5326987068232555 -0.8133339267170312 -0.5328591838371862 -0.006981709823057894 -0.002803281548027634
299500000000.0 -0.007007133342156346 -0.002748671888521911 -0.8139151585809412 -0.5319788819839911 -0.8137763446588965 -0.5321438470710302 -0.006981818211226815 -0.002826497586283695
299600000000.0 -0.007005144160858864 -0.0027707259295847624 -0.8143525134022527 -0.53125876977069 -0.8142180131511653 -0.5314281167407854 -0.006981919925569832 -0.0028494524726398007
299700000000.0 -0.007003112529748509 -0.002792577759017596 -0.8147889793235729 -0.530538374640851 -0.8146589284878057 -0.5307119931043005 -0.006982009637863572 -0.002872149616947989
299800000000.0 -0.00700103469720829 -0.0028142318878376284 -0.815224555326358 -0.5298177011247054 -0.8150990868955661 -0.529995476554998 -0.0069820821433119315 -0.002894592539901966
299900000000.0 -0.00699890706897973 -0.002835692896881824 -0.8156592404533615 -0.5290967538242768 -0.8155384845381721 -0.5292785676246521 -0.006982132363154755 -0.00291678486946082
300000000000.0 -0.006996726209730595 -0.0028569654321121377 -0.816093033811509 -0.5283755374123551 -0.815977117520739 -0.5285612669860636 -0.006982155347183261 -0.0029387303371252002
